&INPUTPP
    prefix = 'GaN'
    outdir = './'
    filplot = 'temp.data'
    plot_num = 1
/ 
&PLOT
    nfile = 1
    filepp(1) = 'temp.data'
    output_format = 3
    fileout = 'espresso_plot_num_1.xsf'
    iflag = 3
    interpolation='bspline'
    nx = 160,ny = 160,nz = 180
/
