&CONTROL
   calculation      = 'vc-relax'
   verbosity        = 'high'
   restart_mode     = 'restart'
   tstress          = .true.
   tprnfor          = .true.
   outdir           = './'
   prefix           = 'GaN'
   pseudo_dir       = '//group///packages/espresso/pseudo/psl_1.0.0/pslibrary.1.0.0/pbe/PSEUDOPOTENTIALS/'
/
&SYSTEM
   ibrav            = 4
   nat              = 4
   ntyp             = 2
   tot_charge       = 0
   ecutwfc          = 70
   ecutrho          = 350
   occupations      = 'smearing'
   degauss          = 0.01
   smearing         = 'gauss'
   input_dft        = 'BEEF-vdW'
   celldm(1)        = 6.026204151765901
   celldm(3)        = 1.6282444045830058
/
&ELECTRONS
   electron_maxstep = 100
   conv_thr         = 1e-09
   mixing_mode      = 'plain'
   mixing_beta      = 0.7
   mixing_ndim      = 8
   diagonalization  = 'david'
   diago_david_ndim = 4
   diago_full_acc   = .true.
/
&IONS
   ion_dynamics     = 'bfgs'
/
&CELL
   cell_dynamics    = 'bfgs'
/

ATOMIC_SPECIES
Ga 69.723 Ga.pbe-dn-kjpaw_psl.1.0.0.UPF
N 14.007 N.pbe-n-kjpaw_psl.1.0.0.UPF

K_POINTS automatic
6 6 4  0 0 0

ATOMIC_POSITIONS angstrom
Ga 1.5944663711 0.9205641428 2.5914209200 
Ga -0.0000019311 1.8411310472 5.1875995450 
N 1.5944663711 0.9205641428 4.5480702988 
N -0.0000019311 1.8411310472 1.9518916738 

