&CONTROL
   calculation      = 'ensemble'
   verbosity        = 'high'
   restart_mode     = 'restart'
   tstress          = .true.
   tprnfor          = .true.
   outdir           = './'
   prefix           = 'diamond'
   pseudo_dir       = '//group///packages/espresso/pseudo/psl_1.0.0/pslibrary.1.0.0/pbe/PSEUDOPOTENTIALS/'
/
&SYSTEM
   ibrav            = 1
   nat              = 63
   ntyp             = 1
   tot_charge       = 2
   ecutwfc          = 70
   ecutrho          = 350
   occupations      = 'smearing'
   degauss          = 0.01
   smearing         = 'gauss'
   input_dft        = 'BEEF-vdW'
   celldm(1)        = 13.501347988560752
/
&ELECTRONS
   electron_maxstep = 80
   conv_thr         = 1e-07
   mixing_mode      = 'plain'
   mixing_beta      = 0.7
   mixing_ndim      = 8
   diagonalization  = 'david'
   diago_david_ndim = 4
   diago_full_acc   = .true.
/
&IONS
   ion_dynamics     = 'bfgs'
/
&CELL
   cell_dynamics    = 'bfgs'
/

ATOMIC_SPECIES
C 12.011 C.pbe-n-kjpaw_psl.1.0.0.UPF

K_POINTS automatic
2 2 2  0 0 0

ATOMIC_POSITIONS angstrom
C 0.8930976563 2.6792051621 4.4654004751 
C 0.8930976563 6.2515079809 0.8930976563 
C 0.8930976563 6.2515079809 4.4654004751 
C 4.4654004751 2.6792051621 0.8930976563 
C 4.4654004751 2.6792051621 4.4654004751 
C 4.4654004751 6.2515079809 0.8930976563 
C 4.4654004751 6.2515079809 4.4654004751 
C 0.0000000000 0.0000000000 1.7861514092 
C 0.0000000000 0.0000000000 5.3584542280 
C 0.0000000000 3.5723028188 1.7861514092 
C 0.0000000000 3.5723028188 5.3584542280 
C 3.5723028188 0.0000000000 1.7861514092 
C 3.5723028188 0.0000000000 5.3584542280 
C 3.5723028188 3.5723028188 1.7861514092 
C 3.5723028188 3.5723028188 5.3584542280 
C 0.8930976563 0.8930976563 2.6792051621 
C 0.8930976563 0.8930976563 6.2515079809 
C 0.8930976563 4.4654004751 2.6792051621 
C 0.8930976563 4.4654004751 6.2515079809 
C 4.4654004751 0.8930976563 2.6792051621 
C 4.4654004751 0.8930976563 6.2515079809 
C 4.4654004751 4.4654004751 2.6792051621 
C 4.4654004751 4.4654004751 6.2515079809 
C 0.0000000000 1.7861514092 0.0000000000 
C 0.0000000000 1.7861514092 3.5723028188 
C 0.0000000000 5.3584542280 0.0000000000 
C 0.0000000000 5.3584542280 3.5723028188 
C 3.5723028188 1.7861514092 0.0000000000 
C 3.5723028188 1.7861514092 3.5723028188 
C 3.5723028188 5.3584542280 0.0000000000 
C 3.5723028188 5.3584542280 3.5723028188 
C 2.6792051621 2.6792051621 2.6792051621 
C 2.6792051621 2.6792051621 6.2515079809 
C 2.6792051621 6.2515079809 2.6792051621 
C 2.6792051621 6.2515079809 6.2515079809 
C 6.2515079809 2.6792051621 2.6792051621 
C 6.2515079809 2.6792051621 6.2515079809 
C 6.2515079809 6.2515079809 2.6792051621 
C 6.2515079809 6.2515079809 6.2515079809 
C 1.7861514092 0.0000000000 0.0000000000 
C 1.7861514092 0.0000000000 3.5723028188 
C 1.7861514092 3.5723028188 0.0000000000 
C 1.7861514092 3.5723028188 3.5723028188 
C 5.3584542280 0.0000000000 0.0000000000 
C 5.3584542280 0.0000000000 3.5723028188 
C 5.3584542280 3.5723028188 0.0000000000 
C 5.3584542280 3.5723028188 3.5723028188 
C 2.6792051621 0.8930976563 0.8930976563 
C 2.6792051621 0.8930976563 4.4654004751 
C 2.6792051621 4.4654004751 0.8930976563 
C 2.6792051621 4.4654004751 4.4654004751 
C 6.2515079809 0.8930976563 0.8930976563 
C 6.2515079809 0.8930976563 4.4654004751 
C 6.2515079809 4.4654004751 0.8930976563 
C 6.2515079809 4.4654004751 4.4654004751 
C 1.7861514092 1.7861514092 1.7861514092 
C 1.7861514092 1.7861514092 5.3584542280 
C 1.7861514092 5.3584542280 1.7861514092 
C 1.7861514092 5.3584542280 5.3584542280 
C 5.3584542280 1.7861514092 1.7861514092 
C 5.3584542280 1.7861514092 5.3584542280 
C 5.3584542280 5.3584542280 1.7861514092 
C 5.3584542280 5.3584542280 5.3584542280 

