&CONTROL
   calculation      = 'vc-relax'
   verbosity        = 'high'
   restart_mode     = 'from_scratch'
   tstress          = .true.
   tprnfor          = .true.
   outdir           = './'
   prefix           = 'PbI2'
   max_seconds      = 154800
   pseudo_dir       = '//group///packages/espresso/pseudo/psl_1.0.0/pslibrary.1.0.0/pbe/PSEUDOPOTENTIALS/'
/
&SYSTEM
   ibrav            = 4
   nat              = 8
   ntyp             = 2
   tot_charge       = 0
   ecutwfc          = 70
   ecutrho          = 350
   occupations      = 'smearing'
   degauss          = 0.01
   smearing         = 'gauss'
   input_dft        = 'BEEF-vdW'
   celldm(1)        = 6.068927288067145
   celldm(3)        = 3.22488477483374
/
&ELECTRONS
   electron_maxstep = 100
   scf_must_converge = .true.
   conv_thr         = 1e-07
   mixing_mode      = 'plain'
   mixing_beta      = 0.7
   mixing_ndim      = 8
   diagonalization  = 'david'
   diago_david_ndim = 4
   diago_full_acc   = .true.
/
&IONS
   ion_dynamics     = 'bfgs'
/
&CELL
   cell_dynamics    = 'bfgs'
/

ATOMIC_SPECIES
Ga 69.723 Ga.pbe-dn-kjpaw_psl.1.0.0.UPF
N 14.007 N.pbe-n-kjpaw_psl.1.0.0.UPF

K_POINTS automatic
6 6 2  0 0 0

ATOMIC_POSITIONS angstrom
Ga 0.0000000000 0.0000000000 2.9606891371 
Ga -0.0000016058 1.8541829271 5.5652376172 
Ga 1.6057706058 0.9270900729 0.3868176172 
Ga 0.0000000000 0.0000000000 8.1391091371 
N -0.0000016058 1.8541829271 8.7385319658 
N 0.0000000000 0.0000000000 6.1419996799 
N 1.6057706058 0.9270900729 3.5601119658 
N 0.0000000000 0.0000000000 0.9635796799 

