&CONTROL
   calculation      = 'ensemble'
   verbosity        = 'high'
   restart_mode     = 'restart'
   tstress          = .true.
   tprnfor          = .true.
   outdir           = './'
   prefix           = 'PbI2'
   max_seconds      = 154800
   pseudo_dir       = '/trace/group/acmegroup/atimmins/packages/espresso/pseudo/psl_1.0.0/pslibrary.1.0.0/pbe/PSEUDOPOTENTIALS/'
/
&SYSTEM
   ibrav            = 4
   nat              = 96
   ntyp             = 2
   tot_charge       = 2
   ecutwfc          = 70
   ecutrho          = 350
   occupations      = 'smearing'
   degauss          = 0.01
   smearing         = 'gauss'
   input_dft        = 'BEEF-vdW'
   celldm(1)        = 35.60728994274709
   celldm(3)        = 0.783025368661312
/
&ELECTRONS
   electron_maxstep = 100
   scf_must_converge = .true.
   conv_thr         = 1e-07
   mixing_mode      = 'plain'
   mixing_beta      = 0.7
   mixing_ndim      = 8
   diagonalization  = 'david'
   diago_david_ndim = 4
   diago_full_acc   = .true.
/
&IONS
   ion_dynamics     = 'bfgs'
/
&CELL
   cell_dynamics    = 'bfgs'
/

ATOMIC_SPECIES
Pb 207.2 Pb.pbe-dn-kjpaw_psl.1.0.0.UPF
I 126.90447 I.pbe-dn-kjpaw_psl.1.0.0.UPF

K_POINTS automatic
1 1 1  0 0 0

ATOMIC_POSITIONS angstrom
Pb 2.3553847156 4.0792569619 7.3770085606 
Pb 0.0001455794 8.1586851281 14.7540329429 
Pb 0.0000467609 8.1587717736 7.3769292355 
Pb -2.3551923753 12.2381999398 14.7539536178 
Pb -2.3552911938 12.2382865853 7.3768499104 
Pb -4.7105303300 16.3177147516 14.7538742928 
Pb -4.7106291485 16.3178013970 7.3767705853 
Pb 7.0661251063 4.0791504909 14.7541752548 
Pb 7.0660262878 4.0792371364 7.3770715474 
Pb 4.7107871516 8.1586653026 14.7540959297 
Pb 4.7106883331 8.1587519481 7.3769922223 
Pb 2.3554491969 12.2381801143 14.7540166046 
Pb 2.3553503784 12.2382667598 7.3769128972 
Pb 0.0001112422 16.3176949260 14.7539372796 
Pb 0.0000124237 16.3177815715 7.3768335721 
Pb 11.7767666785 4.0791306654 14.7542382416 
Pb 11.7766678600 4.0792173109 7.3771345342 
Pb 9.4214287238 8.1586454771 14.7541589165 
Pb 9.4213299054 8.1587321226 7.3770552091 
Pb 7.0660907691 12.2381602888 14.7540795915 
Pb 7.0659919507 12.2382469343 7.3769758840 
Pb 4.7107528144 16.3176751005 14.7540002664 
Pb 4.7106539960 16.3177617460 7.3768965589 
Pb 16.4874082508 4.0791108399 14.7543012284 
Pb 16.4873094323 4.0791974854 7.3771975210 
Pb 14.1320702961 8.1586256516 14.7542219033 
Pb 14.1319714776 8.1587122971 7.3771181959 
Pb 11.7767323414 12.2381404633 14.7541425783 
Pb 11.7766335229 12.2382271088 7.3770388708 
Pb 9.4213943867 16.3176552750 14.7540632532 
Pb 9.4212955682 16.3177419205 7.3769595457 
I 2.3554258990 1.3595785838 5.4816105776 
I 2.3555247175 1.3594919383 12.8587142851 
I 0.0000879443 5.4390933955 5.4815312525 
I 0.0001867628 5.4390067500 12.8586349600 
I -2.3552500104 9.5186082072 5.4814519274 
I -2.3551511919 9.5185215617 12.8585556349 
I -4.7105879651 13.5981230189 5.4813726023 
I -4.7104891466 13.5980363734 12.8584763098 
I 7.0660674712 1.3595587583 5.4816735644 
I 7.0661662897 1.3594721128 12.8587772719 
I 4.7107295165 5.4390735700 5.4815942393 
I 4.7108283350 5.4389869245 12.8586979468 
I 2.3553915619 9.5185883817 5.4815149142 
I 2.3554903803 9.5185017362 12.8586186217 
I 0.0000536072 13.5981031934 5.4814355891 
I 0.0001524256 13.5980165479 12.8585392966 
I 11.7767090435 1.3595389328 5.4817365512 
I 11.7768078619 1.3594522873 12.8588402587 
I 9.4213710888 5.4390537445 5.4816572261 
I 9.4214699073 5.4389670990 12.8587609336 
I 7.0660331341 9.5185685562 5.4815779010 
I 7.0661319526 9.5184819107 12.8586816085 
I 4.7106951794 13.5980833679 5.4814985759 
I 4.7107939979 13.5979967224 12.8586022834 
I 16.4873506157 1.3595191073 5.4817995380 
I 16.4874494342 1.3594324618 12.8589032455 
I 14.1320126610 5.4390339190 5.4817202129 
I 14.1321114795 5.4389472735 12.8588239204 
I 11.7766747063 9.5185487307 5.4816408878 
I 11.7767735248 9.5184620852 12.8587445953 
I 9.4213367516 13.5980635424 5.4815615627 
I 9.4214355701 13.5979768969 12.8586652702 
I -0.0000339165 2.7195427724 1.8954355534 
I 0.0000649020 2.7194561269 9.2725392609 
I -2.3553718712 6.7990575841 1.8953562283 
I -2.3552730527 6.7989709386 9.2724599358 
I -4.7107098259 10.8785723958 1.8952769032 
I -4.7106110074 10.8784857503 9.2723806107 
I -7.0660477806 14.9580872075 1.8951975781 
I -7.0659489621 14.9580005620 9.2723012856 
I 4.7106076557 2.7195229469 1.8954985402 
I 4.7107064742 2.7194363014 9.2726022477 
I 2.3552697010 6.7990377586 1.8954192151 
I 2.3553685195 6.7989511131 9.2725229226 
I -0.0000682536 10.8785525703 1.8953398900 
I 0.0000305648 10.8784659248 9.2724435975 
I -2.3554062083 14.9580673820 1.8952605649 
I -2.3553073899 14.9579807365 9.2723642724 
I 9.4212492280 2.7195031214 1.8955615270 
I 9.4213480464 2.7194164759 9.2726652345 
I 7.0659112733 6.7990179331 1.8954822019 
I 7.0660100918 6.7989312876 9.2725859094 
I 4.7105733186 10.8785327448 1.8954028768 
I 4.7106721371 10.8784460993 9.2725065843 
I 2.3552353639 14.9580475565 1.8953235517 
I 2.3553341824 14.9579609110 9.2724272592 
I 14.1318908002 2.7194832959 1.8956245138 
I 14.1319896187 2.7193966504 9.2727282213 
I 11.7765528455 6.7989981076 1.8955451887 
I 11.7766516640 6.7989114621 9.2726488962 
I 9.4212148908 10.8785129193 1.8954658636 
I 9.4213137093 10.8784262738 9.2725695711 
I 7.0658769361 14.9580277310 1.8953865385 
I 7.0659757546 14.9579410855 9.2724902460 
I 2.3554835341 4.0791703164 14.7541122680 

