&CONTROL
   calculation      = 'ensemble'
   verbosity        = 'high'
   restart_mode     = 'restart'
   tstress          = .true.
   tprnfor          = .true.
   outdir           = './'
   prefix           = 'GaN'
   pseudo_dir       = '/trace/group/acmegroup/atimmins/packages/espresso/pseudo/psl_1.0.0/pslibrary.1.0.0/pbe/PSEUDOPOTENTIALS/'
/
&SYSTEM
   ibrav            = 4
   nat              = 32
   ntyp             = 2
   tot_charge       = 0
   ecutwfc          = 70
   ecutrho          = 350
   occupations      = 'smearing'
   degauss          = 0.01
   smearing         = 'gauss'
   input_dft        = 'BEEF-vdW'
   celldm(1)        = 12.262615871763746
   celldm(3)        = 1.6298790796077964
/
&ELECTRONS
   electron_maxstep = 100
   conv_thr         = 1e-07
   mixing_mode      = 'plain'
   mixing_beta      = 0.7
   mixing_ndim      = 8
   diagonalization  = 'david'
   diago_david_ndim = 4
   diago_full_acc   = .true.
/
&IONS
   ion_dynamics     = 'bfgs'
/
&CELL
   cell_dynamics    = 'bfgs'
/

ATOMIC_SPECIES
Ga 69.723 Ga.pbe-dn-kjpaw_psl.1.0.0.UPF
N 14.007 N.pbe-n-kjpaw_psl.1.0.0.UPF

K_POINTS automatic
4 4 2  0 0 0

ATOMIC_POSITIONS angstrom
Ga 1.6222756606 0.9366198184 2.6396807677 
Ga 1.6222756606 0.9366198184 7.9279023555 
Ga 0.0000014521 3.7464811715 2.6396807677 
Ga 0.0000014521 3.7464811715 7.9279023555 
Ga 4.8668240777 0.9366198184 2.6396807677 
Ga 4.8668240777 0.9366198184 7.9279023555 
Ga 3.2445498691 3.7464811715 2.6396807677 
Ga 3.2445498691 3.7464811715 7.9279023555 
Ga -0.0000019648 1.8732424465 5.2837915627 
Ga -0.0000019648 1.8732424465 10.5720131505 
Ga -1.6222761733 4.6831037996 5.2837915627 
Ga -1.6222761733 4.6831037996 10.5720131505 
Ga 3.2445464523 1.8732424465 5.2837915627 
Ga 3.2445464523 1.8732424465 10.5720131505 
Ga 1.6222722437 4.6831037996 5.2837915627 
Ga 1.6222722437 4.6831037996 10.5720131505 
N 1.6222756606 0.9366198184 4.6316239188 
N 1.6222756606 0.9366198184 9.9198455066 
N 0.0000014521 3.7464811715 4.6316239188 
N 0.0000014521 3.7464811715 9.9198455066 
N 4.8668240777 0.9366198184 4.6316239188 
N 4.8668240777 0.9366198184 9.9198455066 
N 3.2445498691 3.7464811715 4.6316239188 
N 3.2445498691 3.7464811715 9.9198455066 
N -0.0000019648 1.8732424465 1.9875131237 
N -0.0000019648 1.8732424465 7.2757347115 
N -1.6222761733 4.6831037996 1.9875131237 
N -1.6222761733 4.6831037996 7.2757347115 
N 3.2445464523 1.8732424465 1.9875131237 
N 3.2445464523 1.8732424465 7.2757347115 
N 1.6222722437 4.6831037996 1.9875131237 
N 1.6222722437 4.6831037996 7.2757347115 

