&CONTROL
   calculation      = 'ensemble'
   verbosity        = 'high'
   restart_mode     = 'restart'
   tstress          = .true.
   tprnfor          = .true.
   outdir           = './'
   prefix           = 'PbI2'
   max_seconds      = 154800
   pseudo_dir       = '/trace/group/acmegroup/atimmins/packages/espresso/pseudo/psl_1.0.0/pslibrary.1.0.0/pbe/PSEUDOPOTENTIALS/'
/
&SYSTEM
   ibrav            = 4
   nat              = 24
   ntyp             = 2
   tot_charge       = 1
   ecutwfc          = 70
   ecutrho          = 350
   occupations      = 'smearing'
   degauss          = 0.01
   smearing         = 'gauss'
   input_dft        = 'BEEF-vdW'
   celldm(1)        = 17.806016374947284
   celldm(3)        = 1.5659713923023235
/
&ELECTRONS
   electron_maxstep = 100
   scf_must_converge = .true.
   conv_thr         = 1e-07
   mixing_mode      = 'plain'
   mixing_beta      = 0.7
   mixing_ndim      = 8
   diagonalization  = 'david'
   diago_david_ndim = 4
   diago_full_acc   = .true.
/
&IONS
   ion_dynamics     = 'bfgs'
/
&CELL
   cell_dynamics    = 'bfgs'
/

ATOMIC_SPECIES
Pb 207.2 Pb.pbe-dn-kjpaw_psl.1.0.0.UPF
I 126.90447 I.pbe-dn-kjpaw_psl.1.0.0.UPF

K_POINTS automatic
2 2 1  0 0 0

ATOMIC_POSITIONS angstrom
Pb 2.3556984262 4.0798040005 7.3776521883 
Pb 0.0001444528 8.1597787474 14.7552870006 
Pb 0.0000482036 8.1598638983 7.3775744961 
Pb 7.0670636940 4.0797007031 14.7554260513 
Pb 7.0669674448 4.0797858541 7.3777135468 
Pb 4.7114134714 8.1597606009 14.7553483592 
Pb 4.7113172222 8.1598457519 7.3776358546 
I 2.3557355957 1.3597659983 5.4826443618 
I 2.3558318449 1.3596808473 12.8603568664 
I 0.0000853731 5.4398258961 5.4825666696 
I 0.0001816223 5.4397407451 12.8602791742 
I 7.0670046143 1.3597478518 5.4827057203 
I 7.0671008635 1.3596627009 12.8604182249 
I 4.7113543917 5.4398077496 5.4826280281 
I 4.7114506409 5.4397225987 12.8603405327 
I -0.0000321176 2.7199047810 1.8949757376 
I 0.0000641316 2.7198196300 9.2726882422 
I -2.3556823402 6.7999646788 1.8948980454 
I -2.3555860910 6.7998795278 9.2726105500 
I 4.7112369010 2.7198866345 1.8950370961 
I 4.7113331502 2.7198014836 9.2727496007 
I 2.3555866784 6.7999465323 1.8949594039 
I 2.3556829276 6.7998613814 9.2726719085 
I 2.3557946754 4.0797188496 14.7553646928 

