&CONTROL
   calculation      = 'ensemble'
   verbosity        = 'high'
   restart_mode     = 'restart'
   tstress          = .true.
   tprnfor          = .true.
   outdir           = './'
   prefix           = 'PbI2'
   max_seconds      = 154800
   pseudo_dir       = '//group///packages/espresso/pseudo/psl_1.0.0/pslibrary.1.0.0/pbe/PSEUDOPOTENTIALS/'
/
&SYSTEM
   ibrav            = 8
   nat              = 8
   ntyp             = 2
   tot_charge       = 0
   ecutwfc          = 70
   ecutrho          = 350
   occupations      = 'smearing'
   degauss          = 0.01
   smearing         = 'gauss'
   input_dft        = 'BEEF-vdW'
   celldm(1)        = 11.00404639886342
   celldm(2)        = 0.5000010143273897
   celldm(3)        = 0.8707136277407994
/
&ELECTRONS
   electron_maxstep = 100
   scf_must_converge = .true.
   conv_thr         = 1e-07
   mixing_mode      = 'plain'
   mixing_beta      = 0.7
   mixing_ndim      = 8
   diagonalization  = 'david'
   diago_david_ndim = 4
   diago_full_acc   = .true.
/
&IONS
   ion_dynamics     = 'bfgs'
/
&CELL
   cell_dynamics    = 'bfgs'
/

ATOMIC_SPECIES
Ga 69.723 Ga.pbe-dn-kjpaw_psl.1.0.0.UPF
N 14.007 N.pbe-n-kjpaw_psl.1.0.0.UPF

K_POINTS automatic
3 6 3  0 0 0

ATOMIC_POSITIONS angstrom
Ga 0.0000000000 2.1842907000 5.0515546012 
Ga 2.9115452773 2.1842918202 5.0515567547 
Ga 1.4557764283 0.7272603825 2.5164296927 
Ga 4.3673141263 0.7272603825 2.5164296927 
N 0.0000000000 2.1833046114 1.9707353713 
N 2.9115452773 2.1833052875 1.9707358031 
N 1.4557719586 0.7282460866 4.5058558842 
N 4.3673185960 0.7282460866 4.5058558842 

