&INPUTPP
    prefix = 'GaN'
    outdir = './'
    filplot = 'temp.data'
    plot_num = 0
/ 
&PLOT
    nfile = 1
    filepp(1) = 'temp.data'
    output_format = 6
    fileout = 'espresso_plot_num_0.cube'
    iflag = 3
/ 
