&CONTROL
   calculation      = 'ensemble'
   verbosity        = 'high'
   restart_mode     = 'restart'
   tstress          = .true.
   tprnfor          = .true.
   outdir           = './'
   prefix           = 'GaN'
   max_seconds      = 154800
   pseudo_dir       = '//group///packages/espresso/pseudo/psl_1.0.0/pslibrary.1.0.0/pbe/PSEUDOPOTENTIALS/'
/
&SYSTEM
   ibrav            = 4
   nat              = 300
   ntyp             = 2
   tot_charge       = -1
   ecutwfc          = 70
   ecutrho          = 350
   occupations      = 'smearing'
   degauss          = 0.01
   smearing         = 'gauss'
   input_dft        = 'BEEF-vdW'
   celldm(1)        = 30.656539679409363
   celldm(3)        = 0.9779274477646778
/
&ELECTRONS
   electron_maxstep = 100
   conv_thr         = 1e-07
   mixing_mode      = 'plain'
   mixing_beta      = 0.7
   mixing_ndim      = 8
   diagonalization  = 'david'
   diago_david_ndim = 4
   diago_full_acc   = .true.
/
&IONS
   ion_dynamics     = 'bfgs'
/
&CELL
   cell_dynamics    = 'bfgs'
/

ATOMIC_SPECIES
Ga 69.723 Ga.pbe-dn-kjpaw_psl.1.0.0.UPF
N 14.007 N.pbe-n-kjpaw_psl.1.0.0.UPF

K_POINTS automatic
2 2 2  0 0 0

ATOMIC_POSITIONS angstrom
Ga 1.6222756606 0.9366198184 7.9279023555 
Ga 1.6222756606 0.9366198184 13.2161239432 
Ga 0.0000014521 3.7464811715 2.6396807677 
Ga 0.0000014521 3.7464811715 7.9279023555 
Ga 0.0000014521 3.7464811715 13.2161239432 
Ga -1.6222727565 6.5563425246 2.6396807677 
Ga -1.6222727565 6.5563425246 7.9279023555 
Ga -1.6222727565 6.5563425246 13.2161239432 
Ga -3.2445469650 9.3662038776 2.6396807677 
Ga -3.2445469650 9.3662038776 7.9279023555 
Ga -3.2445469650 9.3662038776 13.2161239432 
Ga -4.8668211735 12.1760652307 2.6396807677 
Ga -4.8668211735 12.1760652307 7.9279023555 
Ga -4.8668211735 12.1760652307 13.2161239432 
Ga 4.8668240777 0.9366198184 2.6396807677 
Ga 4.8668240777 0.9366198184 7.9279023555 
Ga 4.8668240777 0.9366198184 13.2161239432 
Ga 3.2445498691 3.7464811715 2.6396807677 
Ga 3.2445498691 3.7464811715 7.9279023555 
Ga 3.2445498691 3.7464811715 13.2161239432 
Ga 1.6222756606 6.5563425246 2.6396807677 
Ga 1.6222756606 6.5563425246 7.9279023555 
Ga 1.6222756606 6.5563425246 13.2161239432 
Ga 0.0000014521 9.3662038776 2.6396807677 
Ga 0.0000014521 9.3662038776 7.9279023555 
Ga 0.0000014521 9.3662038776 13.2161239432 
Ga -1.6222727565 12.1760652307 2.6396807677 
Ga -1.6222727565 12.1760652307 7.9279023555 
Ga -1.6222727565 12.1760652307 13.2161239432 
Ga 8.1113724947 0.9366198184 2.6396807677 
Ga 8.1113724947 0.9366198184 7.9279023555 
Ga 8.1113724947 0.9366198184 13.2161239432 
Ga 6.4890982862 3.7464811715 2.6396807677 
Ga 6.4890982862 3.7464811715 7.9279023555 
Ga 6.4890982862 3.7464811715 13.2161239432 
Ga 4.8668240777 6.5563425246 2.6396807677 
Ga 4.8668240777 6.5563425246 7.9279023555 
Ga 4.8668240777 6.5563425246 13.2161239432 
Ga 3.2445498691 9.3662038776 2.6396807677 
Ga 3.2445498691 9.3662038776 7.9279023555 
Ga 3.2445498691 9.3662038776 13.2161239432 
Ga 1.6222756606 12.1760652307 2.6396807677 
Ga 1.6222756606 12.1760652307 7.9279023555 
Ga 1.6222756606 12.1760652307 13.2161239432 
Ga 11.3559209118 0.9366198184 2.6396807677 
Ga 11.3559209118 0.9366198184 7.9279023555 
Ga 11.3559209118 0.9366198184 13.2161239432 
Ga 9.7336467033 3.7464811715 2.6396807677 
Ga 9.7336467033 3.7464811715 7.9279023555 
Ga 9.7336467033 3.7464811715 13.2161239432 
Ga 8.1113724947 6.5563425246 2.6396807677 
Ga 8.1113724947 6.5563425246 7.9279023555 
Ga 8.1113724947 6.5563425246 13.2161239432 
Ga 6.4890982862 9.3662038776 2.6396807677 
Ga 6.4890982862 9.3662038776 7.9279023555 
Ga 6.4890982862 9.3662038776 13.2161239432 
Ga 4.8668240777 12.1760652307 2.6396807677 
Ga 4.8668240777 12.1760652307 7.9279023555 
Ga 4.8668240777 12.1760652307 13.2161239432 
Ga 14.6004693289 0.9366198184 2.6396807677 
Ga 14.6004693289 0.9366198184 7.9279023555 
Ga 14.6004693289 0.9366198184 13.2161239432 
Ga 12.9781951203 3.7464811715 2.6396807677 
Ga 12.9781951203 3.7464811715 7.9279023555 
Ga 12.9781951203 3.7464811715 13.2161239432 
Ga 11.3559209118 6.5563425246 2.6396807677 
Ga 11.3559209118 6.5563425246 7.9279023555 
Ga 11.3559209118 6.5563425246 13.2161239432 
Ga 9.7336467033 9.3662038776 2.6396807677 
Ga 9.7336467033 9.3662038776 7.9279023555 
Ga 9.7336467033 9.3662038776 13.2161239432 
Ga 8.1113724947 12.1760652307 2.6396807677 
Ga 8.1113724947 12.1760652307 7.9279023555 
Ga 8.1113724947 12.1760652307 13.2161239432 
Ga -0.0000019648 1.8732424465 5.2837915627 
Ga -0.0000019648 1.8732424465 10.5720131505 
Ga -0.0000019648 1.8732424465 15.8602347382 
Ga -1.6222761733 4.6831037996 5.2837915627 
Ga -1.6222761733 4.6831037996 10.5720131505 
Ga -1.6222761733 4.6831037996 15.8602347382 
Ga -3.2445503819 7.4929651527 5.2837915627 
Ga -3.2445503819 7.4929651527 10.5720131505 
Ga -3.2445503819 7.4929651527 15.8602347382 
Ga -4.8668245904 10.3028265057 5.2837915627 
Ga -4.8668245904 10.3028265057 10.5720131505 
Ga -4.8668245904 10.3028265057 15.8602347382 
Ga -6.4890987989 13.1126878588 5.2837915627 
Ga -6.4890987989 13.1126878588 10.5720131505 
Ga -6.4890987989 13.1126878588 15.8602347382 
Ga 3.2445464523 1.8732424465 5.2837915627 
Ga 3.2445464523 1.8732424465 10.5720131505 
Ga 3.2445464523 1.8732424465 15.8602347382 
Ga 1.6222722437 4.6831037996 5.2837915627 
Ga 1.6222722437 4.6831037996 10.5720131505 
Ga 1.6222722437 4.6831037996 15.8602347382 
Ga -0.0000019648 7.4929651527 5.2837915627 
Ga -0.0000019648 7.4929651527 10.5720131505 
Ga -0.0000019648 7.4929651527 15.8602347382 
Ga -1.6222761733 10.3028265057 5.2837915627 
Ga -1.6222761733 10.3028265057 10.5720131505 
Ga -1.6222761733 10.3028265057 15.8602347382 
Ga -3.2445503819 13.1126878588 5.2837915627 
Ga -3.2445503819 13.1126878588 10.5720131505 
Ga -3.2445503819 13.1126878588 15.8602347382 
Ga 6.4890948693 1.8732424465 5.2837915627 
Ga 6.4890948693 1.8732424465 10.5720131505 
Ga 6.4890948693 1.8732424465 15.8602347382 
Ga 4.8668206608 4.6831037996 5.2837915627 
Ga 4.8668206608 4.6831037996 10.5720131505 
Ga 4.8668206608 4.6831037996 15.8602347382 
Ga 3.2445464523 7.4929651527 5.2837915627 
Ga 3.2445464523 7.4929651527 10.5720131505 
Ga 3.2445464523 7.4929651527 15.8602347382 
Ga 1.6222722437 10.3028265057 5.2837915627 
Ga 1.6222722437 10.3028265057 10.5720131505 
Ga 1.6222722437 10.3028265057 15.8602347382 
Ga -0.0000019648 13.1126878588 5.2837915627 
Ga -0.0000019648 13.1126878588 10.5720131505 
Ga -0.0000019648 13.1126878588 15.8602347382 
Ga 9.7336432864 1.8732424465 5.2837915627 
Ga 9.7336432864 1.8732424465 10.5720131505 
Ga 9.7336432864 1.8732424465 15.8602347382 
Ga 8.1113690779 4.6831037996 5.2837915627 
Ga 8.1113690779 4.6831037996 10.5720131505 
Ga 8.1113690779 4.6831037996 15.8602347382 
Ga 6.4890948693 7.4929651527 5.2837915627 
Ga 6.4890948693 7.4929651527 10.5720131505 
Ga 6.4890948693 7.4929651527 15.8602347382 
Ga 4.8668206608 10.3028265057 5.2837915627 
Ga 4.8668206608 10.3028265057 10.5720131505 
Ga 4.8668206608 10.3028265057 15.8602347382 
Ga 3.2445464523 13.1126878588 5.2837915627 
Ga 3.2445464523 13.1126878588 10.5720131505 
Ga 3.2445464523 13.1126878588 15.8602347382 
Ga 12.9781917035 1.8732424465 5.2837915627 
Ga 12.9781917035 1.8732424465 10.5720131505 
Ga 12.9781917035 1.8732424465 15.8602347382 
Ga 11.3559174949 4.6831037996 5.2837915627 
Ga 11.3559174949 4.6831037996 10.5720131505 
Ga 11.3559174949 4.6831037996 15.8602347382 
Ga 9.7336432864 7.4929651527 5.2837915627 
Ga 9.7336432864 7.4929651527 10.5720131505 
Ga 9.7336432864 7.4929651527 15.8602347382 
Ga 8.1113690779 10.3028265057 5.2837915627 
Ga 8.1113690779 10.3028265057 10.5720131505 
Ga 8.1113690779 10.3028265057 15.8602347382 
Ga 6.4890948693 13.1126878588 5.2837915627 
Ga 6.4890948693 13.1126878588 10.5720131505 
Ga 6.4890948693 13.1126878588 15.8602347382 
N 1.6222756606 0.9366198184 4.6316239188 
N 1.6222756606 0.9366198184 9.9198455066 
N 1.6222756606 0.9366198184 15.2080670943 
N 0.0000014521 3.7464811715 4.6316239188 
N 0.0000014521 3.7464811715 9.9198455066 
N 0.0000014521 3.7464811715 15.2080670943 
N -1.6222727565 6.5563425246 4.6316239188 
N -1.6222727565 6.5563425246 9.9198455066 
N -1.6222727565 6.5563425246 15.2080670943 
N -3.2445469650 9.3662038776 4.6316239188 
N -3.2445469650 9.3662038776 9.9198455066 
N -3.2445469650 9.3662038776 15.2080670943 
N -4.8668211735 12.1760652307 4.6316239188 
N -4.8668211735 12.1760652307 9.9198455066 
N -4.8668211735 12.1760652307 15.2080670943 
N 4.8668240777 0.9366198184 4.6316239188 
N 4.8668240777 0.9366198184 9.9198455066 
N 4.8668240777 0.9366198184 15.2080670943 
N 3.2445498691 3.7464811715 4.6316239188 
N 3.2445498691 3.7464811715 9.9198455066 
N 3.2445498691 3.7464811715 15.2080670943 
N 1.6222756606 6.5563425246 4.6316239188 
N 1.6222756606 6.5563425246 9.9198455066 
N 1.6222756606 6.5563425246 15.2080670943 
N 0.0000014521 9.3662038776 4.6316239188 
N 0.0000014521 9.3662038776 9.9198455066 
N 0.0000014521 9.3662038776 15.2080670943 
N -1.6222727565 12.1760652307 4.6316239188 
N -1.6222727565 12.1760652307 9.9198455066 
N -1.6222727565 12.1760652307 15.2080670943 
N 8.1113724947 0.9366198184 4.6316239188 
N 8.1113724947 0.9366198184 9.9198455066 
N 8.1113724947 0.9366198184 15.2080670943 
N 6.4890982862 3.7464811715 4.6316239188 
N 6.4890982862 3.7464811715 9.9198455066 
N 6.4890982862 3.7464811715 15.2080670943 
N 4.8668240777 6.5563425246 4.6316239188 
N 4.8668240777 6.5563425246 9.9198455066 
N 4.8668240777 6.5563425246 15.2080670943 
N 3.2445498691 9.3662038776 4.6316239188 
N 3.2445498691 9.3662038776 9.9198455066 
N 3.2445498691 9.3662038776 15.2080670943 
N 1.6222756606 12.1760652307 4.6316239188 
N 1.6222756606 12.1760652307 9.9198455066 
N 1.6222756606 12.1760652307 15.2080670943 
N 11.3559209118 0.9366198184 4.6316239188 
N 11.3559209118 0.9366198184 9.9198455066 
N 11.3559209118 0.9366198184 15.2080670943 
N 9.7336467033 3.7464811715 4.6316239188 
N 9.7336467033 3.7464811715 9.9198455066 
N 9.7336467033 3.7464811715 15.2080670943 
N 8.1113724947 6.5563425246 4.6316239188 
N 8.1113724947 6.5563425246 9.9198455066 
N 8.1113724947 6.5563425246 15.2080670943 
N 6.4890982862 9.3662038776 4.6316239188 
N 6.4890982862 9.3662038776 9.9198455066 
N 6.4890982862 9.3662038776 15.2080670943 
N 4.8668240777 12.1760652307 4.6316239188 
N 4.8668240777 12.1760652307 9.9198455066 
N 4.8668240777 12.1760652307 15.2080670943 
N 14.6004693289 0.9366198184 4.6316239188 
N 14.6004693289 0.9366198184 9.9198455066 
N 14.6004693289 0.9366198184 15.2080670943 
N 12.9781951203 3.7464811715 4.6316239188 
N 12.9781951203 3.7464811715 9.9198455066 
N 12.9781951203 3.7464811715 15.2080670943 
N 11.3559209118 6.5563425246 4.6316239188 
N 11.3559209118 6.5563425246 9.9198455066 
N 11.3559209118 6.5563425246 15.2080670943 
N 9.7336467033 9.3662038776 4.6316239188 
N 9.7336467033 9.3662038776 9.9198455066 
N 9.7336467033 9.3662038776 15.2080670943 
N 8.1113724947 12.1760652307 4.6316239188 
N 8.1113724947 12.1760652307 9.9198455066 
N 8.1113724947 12.1760652307 15.2080670943 
N -0.0000019648 1.8732424465 1.9875131237 
N -0.0000019648 1.8732424465 7.2757347115 
N -0.0000019648 1.8732424465 12.5639562992 
N -1.6222761733 4.6831037996 1.9875131237 
N -1.6222761733 4.6831037996 7.2757347115 
N -1.6222761733 4.6831037996 12.5639562992 
N -3.2445503819 7.4929651527 1.9875131237 
N -3.2445503819 7.4929651527 7.2757347115 
N -3.2445503819 7.4929651527 12.5639562992 
N -4.8668245904 10.3028265057 1.9875131237 
N -4.8668245904 10.3028265057 7.2757347115 
N -4.8668245904 10.3028265057 12.5639562992 
N -6.4890987989 13.1126878588 1.9875131237 
N -6.4890987989 13.1126878588 7.2757347115 
N -6.4890987989 13.1126878588 12.5639562992 
N 3.2445464523 1.8732424465 1.9875131237 
N 3.2445464523 1.8732424465 7.2757347115 
N 3.2445464523 1.8732424465 12.5639562992 
N 1.6222722437 4.6831037996 1.9875131237 
N 1.6222722437 4.6831037996 7.2757347115 
N 1.6222722437 4.6831037996 12.5639562992 
N -0.0000019648 7.4929651527 1.9875131237 
N -0.0000019648 7.4929651527 7.2757347115 
N -0.0000019648 7.4929651527 12.5639562992 
N -1.6222761733 10.3028265057 1.9875131237 
N -1.6222761733 10.3028265057 7.2757347115 
N -1.6222761733 10.3028265057 12.5639562992 
N -3.2445503819 13.1126878588 1.9875131237 
N -3.2445503819 13.1126878588 7.2757347115 
N -3.2445503819 13.1126878588 12.5639562992 
N 6.4890948693 1.8732424465 1.9875131237 
N 6.4890948693 1.8732424465 7.2757347115 
N 6.4890948693 1.8732424465 12.5639562992 
N 4.8668206608 4.6831037996 1.9875131237 
N 4.8668206608 4.6831037996 7.2757347115 
N 4.8668206608 4.6831037996 12.5639562992 
N 3.2445464523 7.4929651527 1.9875131237 
N 3.2445464523 7.4929651527 7.2757347115 
N 3.2445464523 7.4929651527 12.5639562992 
N 1.6222722437 10.3028265057 1.9875131237 
N 1.6222722437 10.3028265057 7.2757347115 
N 1.6222722437 10.3028265057 12.5639562992 
N -0.0000019648 13.1126878588 1.9875131237 
N -0.0000019648 13.1126878588 7.2757347115 
N -0.0000019648 13.1126878588 12.5639562992 
N 9.7336432864 1.8732424465 1.9875131237 
N 9.7336432864 1.8732424465 7.2757347115 
N 9.7336432864 1.8732424465 12.5639562992 
N 8.1113690779 4.6831037996 1.9875131237 
N 8.1113690779 4.6831037996 7.2757347115 
N 8.1113690779 4.6831037996 12.5639562992 
N 6.4890948693 7.4929651527 1.9875131237 
N 6.4890948693 7.4929651527 7.2757347115 
N 6.4890948693 7.4929651527 12.5639562992 
N 4.8668206608 10.3028265057 1.9875131237 
N 4.8668206608 10.3028265057 7.2757347115 
N 4.8668206608 10.3028265057 12.5639562992 
N 3.2445464523 13.1126878588 1.9875131237 
N 3.2445464523 13.1126878588 7.2757347115 
N 3.2445464523 13.1126878588 12.5639562992 
N 12.9781917035 1.8732424465 1.9875131237 
N 12.9781917035 1.8732424465 7.2757347115 
N 12.9781917035 1.8732424465 12.5639562992 
N 11.3559174949 4.6831037996 1.9875131237 
N 11.3559174949 4.6831037996 7.2757347115 
N 11.3559174949 4.6831037996 12.5639562992 
N 9.7336432864 7.4929651527 1.9875131237 
N 9.7336432864 7.4929651527 7.2757347115 
N 9.7336432864 7.4929651527 12.5639562992 
N 8.1113690779 10.3028265057 1.9875131237 
N 8.1113690779 10.3028265057 7.2757347115 
N 8.1113690779 10.3028265057 12.5639562992 
N 6.4890948693 13.1126878588 1.9875131237 
N 6.4890948693 13.1126878588 7.2757347115 
N 6.4890948693 13.1126878588 12.5639562992 
N 1.6222756606 0.9366198184 2.6396807677 

