&CONTROL
   calculation      = 'vc-relax'
   verbosity        = 'high'
   restart_mode     = 'from_scratch'
   tstress          = .true.
   tprnfor          = .true.
   outdir           = './'
   prefix           = 'PbI2'
   max_seconds      = 154800
   pseudo_dir       = '//group///packages/espresso/pseudo/psl_1.0.0/pslibrary.1.0.0/pbe/PSEUDOPOTENTIALS/'
/
&SYSTEM
   ibrav            = 8
   nat              = 8
   ntyp             = 2
   tot_charge       = 0
   ecutwfc          = 70
   ecutrho          = 350
   occupations      = 'smearing'
   degauss          = 0.01
   smearing         = 'gauss'
   input_dft        = 'BEEF-vdW'
   celldm(1)        = 10.905428104047294
   celldm(2)        = 0.4999038278924758
   celldm(3)        = 0.8692300201146996
/
&ELECTRONS
   electron_maxstep = 100
   scf_must_converge = .true.
   conv_thr         = 1e-07
   mixing_mode      = 'plain'
   mixing_beta      = 0.7
   mixing_ndim      = 8
   diagonalization  = 'david'
   diago_david_ndim = 4
   diago_full_acc   = .true.
/
&IONS
   ion_dynamics     = 'bfgs'
/
&CELL
   cell_dynamics    = 'bfgs'
/

ATOMIC_SPECIES
Ga 69.723 Ga.pbe-dn-kjpaw_psl.1.0.0.UPF
N 14.007 N.pbe-n-kjpaw_psl.1.0.0.UPF

K_POINTS automatic
3 6 3  0 0 0

ATOMIC_POSITIONS angstrom
Ga 0.0000000000 2.1651671266 4.9932485421 
Ga 2.8854520000 2.1651671266 4.9932485421 
Ga 1.4427260000 0.7197298734 2.4851270421 
Ga 4.3281780000 0.7197298734 2.4851270421 
N 0.0000000000 2.1627697772 1.9542480129 
N 2.8854520000 2.1627697772 1.9542480129 
N 1.4427260000 0.7221272228 4.4623695129 
N 4.3281780000 0.7221272228 4.4623695129 

