&CONTROL
   calculation      = 'vc-relax'
   verbosity        = 'high'
   restart_mode     = 'from_scratch'
   tstress          = .true.
   tprnfor          = .true.
   outdir           = './'
   prefix           = 'PbI2'
   max_seconds      = 154800
   pseudo_dir       = '//group///packages/espresso/pseudo/psl_1.0.0/pslibrary.1.0.0/pbe/PSEUDOPOTENTIALS/'
/
&SYSTEM
   ibrav            = 1
   nat              = 8
   ntyp             = 2
   tot_charge       = 0
   ecutwfc          = 70
   ecutrho          = 350
   occupations      = 'smearing'
   degauss          = 0.01
   smearing         = 'gauss'
   input_dft        = 'BEEF-vdW'
   celldm(1)        = 8.070018762310177
/
&ELECTRONS
   electron_maxstep = 100
   scf_must_converge = .true.
   conv_thr         = 1e-07
   mixing_mode      = 'plain'
   mixing_beta      = 0.7
   mixing_ndim      = 8
   diagonalization  = 'david'
   diago_david_ndim = 4
   diago_full_acc   = .true.
/
&IONS
   ion_dynamics     = 'bfgs'
/
&CELL
   cell_dynamics    = 'bfgs'
/

ATOMIC_SPECIES
Ga 69.723 Ga.pbe-dn-kjpaw_psl.1.0.0.UPF
N 14.007 N.pbe-n-kjpaw_psl.1.0.0.UPF

K_POINTS automatic
4 4 4  0 0 0

ATOMIC_POSITIONS angstrom
Ga 0.0000000000 0.0000000000 0.0000000000 
Ga 0.0000000000 2.1352350000 2.1352350000 
Ga 2.1352350000 0.0000000000 2.1352350000 
Ga 2.1352350000 2.1352350000 0.0000000000 
N 2.1352350000 0.0000000000 0.0000000000 
N 2.1352350000 2.1352350000 2.1352350000 
N 0.0000000000 0.0000000000 2.1352350000 
N 0.0000000000 2.1352350000 0.0000000000 

