&CONTROL
   calculation      = 'ensemble'
   verbosity        = 'high'
   restart_mode     = 'restart'
   tstress          = .true.
   tprnfor          = .true.
   outdir           = './'
   prefix           = 'PbI2'
   max_seconds      = 154800
   pseudo_dir       = '//group///packages/espresso/pseudo/psl_1.0.0/pslibrary.1.0.0/pbe/PSEUDOPOTENTIALS/'
/
&SYSTEM
   ibrav            = 4
   nat              = 8
   ntyp             = 2
   tot_charge       = 0
   ecutwfc          = 70
   ecutrho          = 350
   occupations      = 'smearing'
   degauss          = 0.01
   smearing         = 'gauss'
   input_dft        = 'BEEF-vdW'
   celldm(1)        = 6.0470642889530675
   celldm(3)        = 3.3267479739118704
/
&ELECTRONS
   electron_maxstep = 100
   scf_must_converge = .true.
   conv_thr         = 1e-07
   mixing_mode      = 'plain'
   mixing_beta      = 0.7
   mixing_ndim      = 8
   diagonalization  = 'david'
   diago_david_ndim = 4
   diago_full_acc   = .true.
/
&IONS
   ion_dynamics     = 'bfgs'
/
&CELL
   cell_dynamics    = 'bfgs'
/

ATOMIC_SPECIES
Ga 69.723 Ga.pbe-dn-kjpaw_psl.1.0.0.UPF
N 14.007 N.pbe-n-kjpaw_psl.1.0.0.UPF

K_POINTS automatic
6 6 2  0 0 0

ATOMIC_POSITIONS angstrom
Ga 0.0000000000 0.0000000000 3.0247099672 
Ga -0.0000016000 1.8475033270 5.6756331341 
Ga 1.5999858985 0.9237502778 0.3528886082 
Ga 0.0000000000 0.0000000000 8.3474544931 
N -0.0000016000 1.8475033270 9.0414854539 
N 0.0000000000 0.0000000000 6.3169767017 
N 1.5999858985 0.9237502778 3.7187409280 
N 0.0000000000 0.0000000000 0.9942321758 

