&CONTROL
   calculation      = 'ensemble'
   verbosity        = 'high'
   restart_mode     = 'restart'
   tstress          = .true.
   tprnfor          = .true.
   outdir           = './'
   prefix           = 'diamond'
   pseudo_dir       = '/trace/group/acmegroup/atimmins/packages/espresso/pseudo/psl_1.0.0/pslibrary.1.0.0/pbe/PSEUDOPOTENTIALS/'
   max_seconds      = 154800
/
&SYSTEM
   ibrav            = 1
   nat              = 999
   ntyp             = 1
   tot_charge       = 1
   ecutwfc          = 70
   ecutrho          = 350
   occupations      = 'smearing'
   degauss          = 0.01
   smearing         = 'gauss'
   input_dft        = 'BEEF-vdW'
   celldm(1)        = 33.75337334806847
/
&ELECTRONS
   electron_maxstep = 100
   conv_thr         = 1e-07
   mixing_mode      = 'plain'
   mixing_beta      = 0.7
   mixing_ndim      = 8
   diagonalization  = 'david'
   diago_david_ndim = 4
   diago_full_acc   = .true.
/
&IONS
   ion_dynamics     = 'bfgs'
/
&CELL
   cell_dynamics    = 'bfgs'
/

ATOMIC_SPECIES
C 12.011 C.pbe-n-kjpaw_psl.1.0.0.UPF

K_POINTS automatic
1 1 1  0 0 0

ATOMIC_POSITIONS angstrom
C 0.8930972856 2.6792058914 4.4654004618 
C 0.8930972856 2.6792058914 8.0377036379 
C 0.8930972856 2.6792058914 11.6100068141 
C 0.8930972856 2.6792058914 15.1823099903 
C 0.8930972856 6.2515090676 0.8930972856 
C 0.8930972856 6.2515090676 4.4654004618 
C 0.8930972856 6.2515090676 8.0377036379 
C 0.8930972856 6.2515090676 11.6100068141 
C 0.8930972856 6.2515090676 15.1823099903 
C 0.8930972856 9.8238122437 0.8930972856 
C 0.8930972856 9.8238122437 4.4654004618 
C 0.8930972856 9.8238122437 8.0377036379 
C 0.8930972856 9.8238122437 11.6100068141 
C 0.8930972856 9.8238122437 15.1823099903 
C 0.8930972856 13.3961154199 0.8930972856 
C 0.8930972856 13.3961154199 4.4654004618 
C 0.8930972856 13.3961154199 8.0377036379 
C 0.8930972856 13.3961154199 11.6100068141 
C 0.8930972856 13.3961154199 15.1823099903 
C 0.8930972856 16.9684185961 0.8930972856 
C 0.8930972856 16.9684185961 4.4654004618 
C 0.8930972856 16.9684185961 8.0377036379 
C 0.8930972856 16.9684185961 11.6100068141 
C 0.8930972856 16.9684185961 15.1823099903 
C 4.4654004618 2.6792058914 0.8930972856 
C 4.4654004618 2.6792058914 4.4654004618 
C 4.4654004618 2.6792058914 8.0377036379 
C 4.4654004618 2.6792058914 11.6100068141 
C 4.4654004618 2.6792058914 15.1823099903 
C 4.4654004618 6.2515090676 0.8930972856 
C 4.4654004618 6.2515090676 4.4654004618 
C 4.4654004618 6.2515090676 8.0377036379 
C 4.4654004618 6.2515090676 11.6100068141 
C 4.4654004618 6.2515090676 15.1823099903 
C 4.4654004618 9.8238122437 0.8930972856 
C 4.4654004618 9.8238122437 4.4654004618 
C 4.4654004618 9.8238122437 8.0377036379 
C 4.4654004618 9.8238122437 11.6100068141 
C 4.4654004618 9.8238122437 15.1823099903 
C 4.4654004618 13.3961154199 0.8930972856 
C 4.4654004618 13.3961154199 4.4654004618 
C 4.4654004618 13.3961154199 8.0377036379 
C 4.4654004618 13.3961154199 11.6100068141 
C 4.4654004618 13.3961154199 15.1823099903 
C 4.4654004618 16.9684185961 0.8930972856 
C 4.4654004618 16.9684185961 4.4654004618 
C 4.4654004618 16.9684185961 8.0377036379 
C 4.4654004618 16.9684185961 11.6100068141 
C 4.4654004618 16.9684185961 15.1823099903 
C 8.0377036379 2.6792058914 0.8930972856 
C 8.0377036379 2.6792058914 4.4654004618 
C 8.0377036379 2.6792058914 8.0377036379 
C 8.0377036379 2.6792058914 11.6100068141 
C 8.0377036379 2.6792058914 15.1823099903 
C 8.0377036379 6.2515090676 0.8930972856 
C 8.0377036379 6.2515090676 4.4654004618 
C 8.0377036379 6.2515090676 8.0377036379 
C 8.0377036379 6.2515090676 11.6100068141 
C 8.0377036379 6.2515090676 15.1823099903 
C 8.0377036379 9.8238122437 0.8930972856 
C 8.0377036379 9.8238122437 4.4654004618 
C 8.0377036379 9.8238122437 8.0377036379 
C 8.0377036379 9.8238122437 11.6100068141 
C 8.0377036379 9.8238122437 15.1823099903 
C 8.0377036379 13.3961154199 0.8930972856 
C 8.0377036379 13.3961154199 4.4654004618 
C 8.0377036379 13.3961154199 8.0377036379 
C 8.0377036379 13.3961154199 11.6100068141 
C 8.0377036379 13.3961154199 15.1823099903 
C 8.0377036379 16.9684185961 0.8930972856 
C 8.0377036379 16.9684185961 4.4654004618 
C 8.0377036379 16.9684185961 8.0377036379 
C 8.0377036379 16.9684185961 11.6100068141 
C 8.0377036379 16.9684185961 15.1823099903 
C 11.6100068141 2.6792058914 0.8930972856 
C 11.6100068141 2.6792058914 4.4654004618 
C 11.6100068141 2.6792058914 8.0377036379 
C 11.6100068141 2.6792058914 11.6100068141 
C 11.6100068141 2.6792058914 15.1823099903 
C 11.6100068141 6.2515090676 0.8930972856 
C 11.6100068141 6.2515090676 4.4654004618 
C 11.6100068141 6.2515090676 8.0377036379 
C 11.6100068141 6.2515090676 11.6100068141 
C 11.6100068141 6.2515090676 15.1823099903 
C 11.6100068141 9.8238122437 0.8930972856 
C 11.6100068141 9.8238122437 4.4654004618 
C 11.6100068141 9.8238122437 8.0377036379 
C 11.6100068141 9.8238122437 11.6100068141 
C 11.6100068141 9.8238122437 15.1823099903 
C 11.6100068141 13.3961154199 0.8930972856 
C 11.6100068141 13.3961154199 4.4654004618 
C 11.6100068141 13.3961154199 8.0377036379 
C 11.6100068141 13.3961154199 11.6100068141 
C 11.6100068141 13.3961154199 15.1823099903 
C 11.6100068141 16.9684185961 0.8930972856 
C 11.6100068141 16.9684185961 4.4654004618 
C 11.6100068141 16.9684185961 8.0377036379 
C 11.6100068141 16.9684185961 11.6100068141 
C 11.6100068141 16.9684185961 15.1823099903 
C 15.1823099903 2.6792058914 0.8930972856 
C 15.1823099903 2.6792058914 4.4654004618 
C 15.1823099903 2.6792058914 8.0377036379 
C 15.1823099903 2.6792058914 11.6100068141 
C 15.1823099903 2.6792058914 15.1823099903 
C 15.1823099903 6.2515090676 0.8930972856 
C 15.1823099903 6.2515090676 4.4654004618 
C 15.1823099903 6.2515090676 8.0377036379 
C 15.1823099903 6.2515090676 11.6100068141 
C 15.1823099903 6.2515090676 15.1823099903 
C 15.1823099903 9.8238122437 0.8930972856 
C 15.1823099903 9.8238122437 4.4654004618 
C 15.1823099903 9.8238122437 8.0377036379 
C 15.1823099903 9.8238122437 11.6100068141 
C 15.1823099903 9.8238122437 15.1823099903 
C 15.1823099903 13.3961154199 0.8930972856 
C 15.1823099903 13.3961154199 4.4654004618 
C 15.1823099903 13.3961154199 8.0377036379 
C 15.1823099903 13.3961154199 11.6100068141 
C 15.1823099903 13.3961154199 15.1823099903 
C 15.1823099903 16.9684185961 0.8930972856 
C 15.1823099903 16.9684185961 4.4654004618 
C 15.1823099903 16.9684185961 8.0377036379 
C 15.1823099903 16.9684185961 11.6100068141 
C 15.1823099903 16.9684185961 15.1823099903 
C 0.0000000000 0.0000000000 1.7861515885 
C 0.0000000000 0.0000000000 5.3584547647 
C 0.0000000000 0.0000000000 8.9307579408 
C 0.0000000000 0.0000000000 12.5030611170 
C 0.0000000000 0.0000000000 16.0753642932 
C 0.0000000000 3.5723031762 1.7861515885 
C 0.0000000000 3.5723031762 5.3584547647 
C 0.0000000000 3.5723031762 8.9307579408 
C 0.0000000000 3.5723031762 12.5030611170 
C 0.0000000000 3.5723031762 16.0753642932 
C 0.0000000000 7.1446063523 1.7861515885 
C 0.0000000000 7.1446063523 5.3584547647 
C 0.0000000000 7.1446063523 8.9307579408 
C 0.0000000000 7.1446063523 12.5030611170 
C 0.0000000000 7.1446063523 16.0753642932 
C 0.0000000000 10.7169095285 1.7861515885 
C 0.0000000000 10.7169095285 5.3584547647 
C 0.0000000000 10.7169095285 8.9307579408 
C 0.0000000000 10.7169095285 12.5030611170 
C 0.0000000000 10.7169095285 16.0753642932 
C 0.0000000000 14.2892127047 1.7861515885 
C 0.0000000000 14.2892127047 5.3584547647 
C 0.0000000000 14.2892127047 8.9307579408 
C 0.0000000000 14.2892127047 12.5030611170 
C 0.0000000000 14.2892127047 16.0753642932 
C 3.5723031762 0.0000000000 1.7861515885 
C 3.5723031762 0.0000000000 5.3584547647 
C 3.5723031762 0.0000000000 8.9307579408 
C 3.5723031762 0.0000000000 12.5030611170 
C 3.5723031762 0.0000000000 16.0753642932 
C 3.5723031762 3.5723031762 1.7861515885 
C 3.5723031762 3.5723031762 5.3584547647 
C 3.5723031762 3.5723031762 8.9307579408 
C 3.5723031762 3.5723031762 12.5030611170 
C 3.5723031762 3.5723031762 16.0753642932 
C 3.5723031762 7.1446063523 1.7861515885 
C 3.5723031762 7.1446063523 5.3584547647 
C 3.5723031762 7.1446063523 8.9307579408 
C 3.5723031762 7.1446063523 12.5030611170 
C 3.5723031762 7.1446063523 16.0753642932 
C 3.5723031762 10.7169095285 1.7861515885 
C 3.5723031762 10.7169095285 5.3584547647 
C 3.5723031762 10.7169095285 8.9307579408 
C 3.5723031762 10.7169095285 12.5030611170 
C 3.5723031762 10.7169095285 16.0753642932 
C 3.5723031762 14.2892127047 1.7861515885 
C 3.5723031762 14.2892127047 5.3584547647 
C 3.5723031762 14.2892127047 8.9307579408 
C 3.5723031762 14.2892127047 12.5030611170 
C 3.5723031762 14.2892127047 16.0753642932 
C 7.1446063523 0.0000000000 1.7861515885 
C 7.1446063523 0.0000000000 5.3584547647 
C 7.1446063523 0.0000000000 8.9307579408 
C 7.1446063523 0.0000000000 12.5030611170 
C 7.1446063523 0.0000000000 16.0753642932 
C 7.1446063523 3.5723031762 1.7861515885 
C 7.1446063523 3.5723031762 5.3584547647 
C 7.1446063523 3.5723031762 8.9307579408 
C 7.1446063523 3.5723031762 12.5030611170 
C 7.1446063523 3.5723031762 16.0753642932 
C 7.1446063523 7.1446063523 1.7861515885 
C 7.1446063523 7.1446063523 5.3584547647 
C 7.1446063523 7.1446063523 8.9307579408 
C 7.1446063523 7.1446063523 12.5030611170 
C 7.1446063523 7.1446063523 16.0753642932 
C 7.1446063523 10.7169095285 1.7861515885 
C 7.1446063523 10.7169095285 5.3584547647 
C 7.1446063523 10.7169095285 8.9307579408 
C 7.1446063523 10.7169095285 12.5030611170 
C 7.1446063523 10.7169095285 16.0753642932 
C 7.1446063523 14.2892127047 1.7861515885 
C 7.1446063523 14.2892127047 5.3584547647 
C 7.1446063523 14.2892127047 8.9307579408 
C 7.1446063523 14.2892127047 12.5030611170 
C 7.1446063523 14.2892127047 16.0753642932 
C 10.7169095285 0.0000000000 1.7861515885 
C 10.7169095285 0.0000000000 5.3584547647 
C 10.7169095285 0.0000000000 8.9307579408 
C 10.7169095285 0.0000000000 12.5030611170 
C 10.7169095285 0.0000000000 16.0753642932 
C 10.7169095285 3.5723031762 1.7861515885 
C 10.7169095285 3.5723031762 5.3584547647 
C 10.7169095285 3.5723031762 8.9307579408 
C 10.7169095285 3.5723031762 12.5030611170 
C 10.7169095285 3.5723031762 16.0753642932 
C 10.7169095285 7.1446063523 1.7861515885 
C 10.7169095285 7.1446063523 5.3584547647 
C 10.7169095285 7.1446063523 8.9307579408 
C 10.7169095285 7.1446063523 12.5030611170 
C 10.7169095285 7.1446063523 16.0753642932 
C 10.7169095285 10.7169095285 1.7861515885 
C 10.7169095285 10.7169095285 5.3584547647 
C 10.7169095285 10.7169095285 8.9307579408 
C 10.7169095285 10.7169095285 12.5030611170 
C 10.7169095285 10.7169095285 16.0753642932 
C 10.7169095285 14.2892127047 1.7861515885 
C 10.7169095285 14.2892127047 5.3584547647 
C 10.7169095285 14.2892127047 8.9307579408 
C 10.7169095285 14.2892127047 12.5030611170 
C 10.7169095285 14.2892127047 16.0753642932 
C 14.2892127047 0.0000000000 1.7861515885 
C 14.2892127047 0.0000000000 5.3584547647 
C 14.2892127047 0.0000000000 8.9307579408 
C 14.2892127047 0.0000000000 12.5030611170 
C 14.2892127047 0.0000000000 16.0753642932 
C 14.2892127047 3.5723031762 1.7861515885 
C 14.2892127047 3.5723031762 5.3584547647 
C 14.2892127047 3.5723031762 8.9307579408 
C 14.2892127047 3.5723031762 12.5030611170 
C 14.2892127047 3.5723031762 16.0753642932 
C 14.2892127047 7.1446063523 1.7861515885 
C 14.2892127047 7.1446063523 5.3584547647 
C 14.2892127047 7.1446063523 8.9307579408 
C 14.2892127047 7.1446063523 12.5030611170 
C 14.2892127047 7.1446063523 16.0753642932 
C 14.2892127047 10.7169095285 1.7861515885 
C 14.2892127047 10.7169095285 5.3584547647 
C 14.2892127047 10.7169095285 8.9307579408 
C 14.2892127047 10.7169095285 12.5030611170 
C 14.2892127047 10.7169095285 16.0753642932 
C 14.2892127047 14.2892127047 1.7861515885 
C 14.2892127047 14.2892127047 5.3584547647 
C 14.2892127047 14.2892127047 8.9307579408 
C 14.2892127047 14.2892127047 12.5030611170 
C 14.2892127047 14.2892127047 16.0753642932 
C 0.8930972856 0.8930972856 2.6792058914 
C 0.8930972856 0.8930972856 6.2515090676 
C 0.8930972856 0.8930972856 9.8238122437 
C 0.8930972856 0.8930972856 13.3961154199 
C 0.8930972856 0.8930972856 16.9684185961 
C 0.8930972856 4.4654004618 2.6792058914 
C 0.8930972856 4.4654004618 6.2515090676 
C 0.8930972856 4.4654004618 9.8238122437 
C 0.8930972856 4.4654004618 13.3961154199 
C 0.8930972856 4.4654004618 16.9684185961 
C 0.8930972856 8.0377036379 2.6792058914 
C 0.8930972856 8.0377036379 6.2515090676 
C 0.8930972856 8.0377036379 9.8238122437 
C 0.8930972856 8.0377036379 13.3961154199 
C 0.8930972856 8.0377036379 16.9684185961 
C 0.8930972856 11.6100068141 2.6792058914 
C 0.8930972856 11.6100068141 6.2515090676 
C 0.8930972856 11.6100068141 9.8238122437 
C 0.8930972856 11.6100068141 13.3961154199 
C 0.8930972856 11.6100068141 16.9684185961 
C 0.8930972856 15.1823099903 2.6792058914 
C 0.8930972856 15.1823099903 6.2515090676 
C 0.8930972856 15.1823099903 9.8238122437 
C 0.8930972856 15.1823099903 13.3961154199 
C 0.8930972856 15.1823099903 16.9684185961 
C 4.4654004618 0.8930972856 2.6792058914 
C 4.4654004618 0.8930972856 6.2515090676 
C 4.4654004618 0.8930972856 9.8238122437 
C 4.4654004618 0.8930972856 13.3961154199 
C 4.4654004618 0.8930972856 16.9684185961 
C 4.4654004618 4.4654004618 2.6792058914 
C 4.4654004618 4.4654004618 6.2515090676 
C 4.4654004618 4.4654004618 9.8238122437 
C 4.4654004618 4.4654004618 13.3961154199 
C 4.4654004618 4.4654004618 16.9684185961 
C 4.4654004618 8.0377036379 2.6792058914 
C 4.4654004618 8.0377036379 6.2515090676 
C 4.4654004618 8.0377036379 9.8238122437 
C 4.4654004618 8.0377036379 13.3961154199 
C 4.4654004618 8.0377036379 16.9684185961 
C 4.4654004618 11.6100068141 2.6792058914 
C 4.4654004618 11.6100068141 6.2515090676 
C 4.4654004618 11.6100068141 9.8238122437 
C 4.4654004618 11.6100068141 13.3961154199 
C 4.4654004618 11.6100068141 16.9684185961 
C 4.4654004618 15.1823099903 2.6792058914 
C 4.4654004618 15.1823099903 6.2515090676 
C 4.4654004618 15.1823099903 9.8238122437 
C 4.4654004618 15.1823099903 13.3961154199 
C 4.4654004618 15.1823099903 16.9684185961 
C 8.0377036379 0.8930972856 2.6792058914 
C 8.0377036379 0.8930972856 6.2515090676 
C 8.0377036379 0.8930972856 9.8238122437 
C 8.0377036379 0.8930972856 13.3961154199 
C 8.0377036379 0.8930972856 16.9684185961 
C 8.0377036379 4.4654004618 2.6792058914 
C 8.0377036379 4.4654004618 6.2515090676 
C 8.0377036379 4.4654004618 9.8238122437 
C 8.0377036379 4.4654004618 13.3961154199 
C 8.0377036379 4.4654004618 16.9684185961 
C 8.0377036379 8.0377036379 2.6792058914 
C 8.0377036379 8.0377036379 6.2515090676 
C 8.0377036379 8.0377036379 9.8238122437 
C 8.0377036379 8.0377036379 13.3961154199 
C 8.0377036379 8.0377036379 16.9684185961 
C 8.0377036379 11.6100068141 2.6792058914 
C 8.0377036379 11.6100068141 6.2515090676 
C 8.0377036379 11.6100068141 9.8238122437 
C 8.0377036379 11.6100068141 13.3961154199 
C 8.0377036379 11.6100068141 16.9684185961 
C 8.0377036379 15.1823099903 2.6792058914 
C 8.0377036379 15.1823099903 6.2515090676 
C 8.0377036379 15.1823099903 9.8238122437 
C 8.0377036379 15.1823099903 13.3961154199 
C 8.0377036379 15.1823099903 16.9684185961 
C 11.6100068141 0.8930972856 2.6792058914 
C 11.6100068141 0.8930972856 6.2515090676 
C 11.6100068141 0.8930972856 9.8238122437 
C 11.6100068141 0.8930972856 13.3961154199 
C 11.6100068141 0.8930972856 16.9684185961 
C 11.6100068141 4.4654004618 2.6792058914 
C 11.6100068141 4.4654004618 6.2515090676 
C 11.6100068141 4.4654004618 9.8238122437 
C 11.6100068141 4.4654004618 13.3961154199 
C 11.6100068141 4.4654004618 16.9684185961 
C 11.6100068141 8.0377036379 2.6792058914 
C 11.6100068141 8.0377036379 6.2515090676 
C 11.6100068141 8.0377036379 9.8238122437 
C 11.6100068141 8.0377036379 13.3961154199 
C 11.6100068141 8.0377036379 16.9684185961 
C 11.6100068141 11.6100068141 2.6792058914 
C 11.6100068141 11.6100068141 6.2515090676 
C 11.6100068141 11.6100068141 9.8238122437 
C 11.6100068141 11.6100068141 13.3961154199 
C 11.6100068141 11.6100068141 16.9684185961 
C 11.6100068141 15.1823099903 2.6792058914 
C 11.6100068141 15.1823099903 6.2515090676 
C 11.6100068141 15.1823099903 9.8238122437 
C 11.6100068141 15.1823099903 13.3961154199 
C 11.6100068141 15.1823099903 16.9684185961 
C 15.1823099903 0.8930972856 2.6792058914 
C 15.1823099903 0.8930972856 6.2515090676 
C 15.1823099903 0.8930972856 9.8238122437 
C 15.1823099903 0.8930972856 13.3961154199 
C 15.1823099903 0.8930972856 16.9684185961 
C 15.1823099903 4.4654004618 2.6792058914 
C 15.1823099903 4.4654004618 6.2515090676 
C 15.1823099903 4.4654004618 9.8238122437 
C 15.1823099903 4.4654004618 13.3961154199 
C 15.1823099903 4.4654004618 16.9684185961 
C 15.1823099903 8.0377036379 2.6792058914 
C 15.1823099903 8.0377036379 6.2515090676 
C 15.1823099903 8.0377036379 9.8238122437 
C 15.1823099903 8.0377036379 13.3961154199 
C 15.1823099903 8.0377036379 16.9684185961 
C 15.1823099903 11.6100068141 2.6792058914 
C 15.1823099903 11.6100068141 6.2515090676 
C 15.1823099903 11.6100068141 9.8238122437 
C 15.1823099903 11.6100068141 13.3961154199 
C 15.1823099903 11.6100068141 16.9684185961 
C 15.1823099903 15.1823099903 2.6792058914 
C 15.1823099903 15.1823099903 6.2515090676 
C 15.1823099903 15.1823099903 9.8238122437 
C 15.1823099903 15.1823099903 13.3961154199 
C 15.1823099903 15.1823099903 16.9684185961 
C 0.0000000000 1.7861515885 0.0000000000 
C 0.0000000000 1.7861515885 3.5723031762 
C 0.0000000000 1.7861515885 7.1446063523 
C 0.0000000000 1.7861515885 10.7169095285 
C 0.0000000000 1.7861515885 14.2892127047 
C 0.0000000000 5.3584547647 0.0000000000 
C 0.0000000000 5.3584547647 3.5723031762 
C 0.0000000000 5.3584547647 7.1446063523 
C 0.0000000000 5.3584547647 10.7169095285 
C 0.0000000000 5.3584547647 14.2892127047 
C 0.0000000000 8.9307579408 0.0000000000 
C 0.0000000000 8.9307579408 3.5723031762 
C 0.0000000000 8.9307579408 7.1446063523 
C 0.0000000000 8.9307579408 10.7169095285 
C 0.0000000000 8.9307579408 14.2892127047 
C 0.0000000000 12.5030611170 0.0000000000 
C 0.0000000000 12.5030611170 3.5723031762 
C 0.0000000000 12.5030611170 7.1446063523 
C 0.0000000000 12.5030611170 10.7169095285 
C 0.0000000000 12.5030611170 14.2892127047 
C 0.0000000000 16.0753642932 0.0000000000 
C 0.0000000000 16.0753642932 3.5723031762 
C 0.0000000000 16.0753642932 7.1446063523 
C 0.0000000000 16.0753642932 10.7169095285 
C 0.0000000000 16.0753642932 14.2892127047 
C 3.5723031762 1.7861515885 0.0000000000 
C 3.5723031762 1.7861515885 3.5723031762 
C 3.5723031762 1.7861515885 7.1446063523 
C 3.5723031762 1.7861515885 10.7169095285 
C 3.5723031762 1.7861515885 14.2892127047 
C 3.5723031762 5.3584547647 0.0000000000 
C 3.5723031762 5.3584547647 3.5723031762 
C 3.5723031762 5.3584547647 7.1446063523 
C 3.5723031762 5.3584547647 10.7169095285 
C 3.5723031762 5.3584547647 14.2892127047 
C 3.5723031762 8.9307579408 0.0000000000 
C 3.5723031762 8.9307579408 3.5723031762 
C 3.5723031762 8.9307579408 7.1446063523 
C 3.5723031762 8.9307579408 10.7169095285 
C 3.5723031762 8.9307579408 14.2892127047 
C 3.5723031762 12.5030611170 0.0000000000 
C 3.5723031762 12.5030611170 3.5723031762 
C 3.5723031762 12.5030611170 7.1446063523 
C 3.5723031762 12.5030611170 10.7169095285 
C 3.5723031762 12.5030611170 14.2892127047 
C 3.5723031762 16.0753642932 0.0000000000 
C 3.5723031762 16.0753642932 3.5723031762 
C 3.5723031762 16.0753642932 7.1446063523 
C 3.5723031762 16.0753642932 10.7169095285 
C 3.5723031762 16.0753642932 14.2892127047 
C 7.1446063523 1.7861515885 0.0000000000 
C 7.1446063523 1.7861515885 3.5723031762 
C 7.1446063523 1.7861515885 7.1446063523 
C 7.1446063523 1.7861515885 10.7169095285 
C 7.1446063523 1.7861515885 14.2892127047 
C 7.1446063523 5.3584547647 0.0000000000 
C 7.1446063523 5.3584547647 3.5723031762 
C 7.1446063523 5.3584547647 7.1446063523 
C 7.1446063523 5.3584547647 10.7169095285 
C 7.1446063523 5.3584547647 14.2892127047 
C 7.1446063523 8.9307579408 0.0000000000 
C 7.1446063523 8.9307579408 3.5723031762 
C 7.1446063523 8.9307579408 7.1446063523 
C 7.1446063523 8.9307579408 10.7169095285 
C 7.1446063523 8.9307579408 14.2892127047 
C 7.1446063523 12.5030611170 0.0000000000 
C 7.1446063523 12.5030611170 3.5723031762 
C 7.1446063523 12.5030611170 7.1446063523 
C 7.1446063523 12.5030611170 10.7169095285 
C 7.1446063523 12.5030611170 14.2892127047 
C 7.1446063523 16.0753642932 0.0000000000 
C 7.1446063523 16.0753642932 3.5723031762 
C 7.1446063523 16.0753642932 7.1446063523 
C 7.1446063523 16.0753642932 10.7169095285 
C 7.1446063523 16.0753642932 14.2892127047 
C 10.7169095285 1.7861515885 0.0000000000 
C 10.7169095285 1.7861515885 3.5723031762 
C 10.7169095285 1.7861515885 7.1446063523 
C 10.7169095285 1.7861515885 10.7169095285 
C 10.7169095285 1.7861515885 14.2892127047 
C 10.7169095285 5.3584547647 0.0000000000 
C 10.7169095285 5.3584547647 3.5723031762 
C 10.7169095285 5.3584547647 7.1446063523 
C 10.7169095285 5.3584547647 10.7169095285 
C 10.7169095285 5.3584547647 14.2892127047 
C 10.7169095285 8.9307579408 0.0000000000 
C 10.7169095285 8.9307579408 3.5723031762 
C 10.7169095285 8.9307579408 7.1446063523 
C 10.7169095285 8.9307579408 10.7169095285 
C 10.7169095285 8.9307579408 14.2892127047 
C 10.7169095285 12.5030611170 0.0000000000 
C 10.7169095285 12.5030611170 3.5723031762 
C 10.7169095285 12.5030611170 7.1446063523 
C 10.7169095285 12.5030611170 10.7169095285 
C 10.7169095285 12.5030611170 14.2892127047 
C 10.7169095285 16.0753642932 0.0000000000 
C 10.7169095285 16.0753642932 3.5723031762 
C 10.7169095285 16.0753642932 7.1446063523 
C 10.7169095285 16.0753642932 10.7169095285 
C 10.7169095285 16.0753642932 14.2892127047 
C 14.2892127047 1.7861515885 0.0000000000 
C 14.2892127047 1.7861515885 3.5723031762 
C 14.2892127047 1.7861515885 7.1446063523 
C 14.2892127047 1.7861515885 10.7169095285 
C 14.2892127047 1.7861515885 14.2892127047 
C 14.2892127047 5.3584547647 0.0000000000 
C 14.2892127047 5.3584547647 3.5723031762 
C 14.2892127047 5.3584547647 7.1446063523 
C 14.2892127047 5.3584547647 10.7169095285 
C 14.2892127047 5.3584547647 14.2892127047 
C 14.2892127047 8.9307579408 0.0000000000 
C 14.2892127047 8.9307579408 3.5723031762 
C 14.2892127047 8.9307579408 7.1446063523 
C 14.2892127047 8.9307579408 10.7169095285 
C 14.2892127047 8.9307579408 14.2892127047 
C 14.2892127047 12.5030611170 0.0000000000 
C 14.2892127047 12.5030611170 3.5723031762 
C 14.2892127047 12.5030611170 7.1446063523 
C 14.2892127047 12.5030611170 10.7169095285 
C 14.2892127047 12.5030611170 14.2892127047 
C 14.2892127047 16.0753642932 0.0000000000 
C 14.2892127047 16.0753642932 3.5723031762 
C 14.2892127047 16.0753642932 7.1446063523 
C 14.2892127047 16.0753642932 10.7169095285 
C 14.2892127047 16.0753642932 14.2892127047 
C 2.6792058914 2.6792058914 2.6792058914 
C 2.6792058914 2.6792058914 6.2515090676 
C 2.6792058914 2.6792058914 9.8238122437 
C 2.6792058914 2.6792058914 13.3961154199 
C 2.6792058914 2.6792058914 16.9684185961 
C 2.6792058914 6.2515090676 2.6792058914 
C 2.6792058914 6.2515090676 6.2515090676 
C 2.6792058914 6.2515090676 9.8238122437 
C 2.6792058914 6.2515090676 13.3961154199 
C 2.6792058914 6.2515090676 16.9684185961 
C 2.6792058914 9.8238122437 2.6792058914 
C 2.6792058914 9.8238122437 6.2515090676 
C 2.6792058914 9.8238122437 9.8238122437 
C 2.6792058914 9.8238122437 13.3961154199 
C 2.6792058914 9.8238122437 16.9684185961 
C 2.6792058914 13.3961154199 2.6792058914 
C 2.6792058914 13.3961154199 6.2515090676 
C 2.6792058914 13.3961154199 9.8238122437 
C 2.6792058914 13.3961154199 13.3961154199 
C 2.6792058914 13.3961154199 16.9684185961 
C 2.6792058914 16.9684185961 2.6792058914 
C 2.6792058914 16.9684185961 6.2515090676 
C 2.6792058914 16.9684185961 9.8238122437 
C 2.6792058914 16.9684185961 13.3961154199 
C 2.6792058914 16.9684185961 16.9684185961 
C 6.2515090676 2.6792058914 2.6792058914 
C 6.2515090676 2.6792058914 6.2515090676 
C 6.2515090676 2.6792058914 9.8238122437 
C 6.2515090676 2.6792058914 13.3961154199 
C 6.2515090676 2.6792058914 16.9684185961 
C 6.2515090676 6.2515090676 2.6792058914 
C 6.2515090676 6.2515090676 6.2515090676 
C 6.2515090676 6.2515090676 9.8238122437 
C 6.2515090676 6.2515090676 13.3961154199 
C 6.2515090676 6.2515090676 16.9684185961 
C 6.2515090676 9.8238122437 2.6792058914 
C 6.2515090676 9.8238122437 6.2515090676 
C 6.2515090676 9.8238122437 9.8238122437 
C 6.2515090676 9.8238122437 13.3961154199 
C 6.2515090676 9.8238122437 16.9684185961 
C 6.2515090676 13.3961154199 2.6792058914 
C 6.2515090676 13.3961154199 6.2515090676 
C 6.2515090676 13.3961154199 9.8238122437 
C 6.2515090676 13.3961154199 13.3961154199 
C 6.2515090676 13.3961154199 16.9684185961 
C 6.2515090676 16.9684185961 2.6792058914 
C 6.2515090676 16.9684185961 6.2515090676 
C 6.2515090676 16.9684185961 9.8238122437 
C 6.2515090676 16.9684185961 13.3961154199 
C 6.2515090676 16.9684185961 16.9684185961 
C 9.8238122437 2.6792058914 2.6792058914 
C 9.8238122437 2.6792058914 6.2515090676 
C 9.8238122437 2.6792058914 9.8238122437 
C 9.8238122437 2.6792058914 13.3961154199 
C 9.8238122437 2.6792058914 16.9684185961 
C 9.8238122437 6.2515090676 2.6792058914 
C 9.8238122437 6.2515090676 6.2515090676 
C 9.8238122437 6.2515090676 9.8238122437 
C 9.8238122437 6.2515090676 13.3961154199 
C 9.8238122437 6.2515090676 16.9684185961 
C 9.8238122437 9.8238122437 2.6792058914 
C 9.8238122437 9.8238122437 6.2515090676 
C 9.8238122437 9.8238122437 9.8238122437 
C 9.8238122437 9.8238122437 13.3961154199 
C 9.8238122437 9.8238122437 16.9684185961 
C 9.8238122437 13.3961154199 2.6792058914 
C 9.8238122437 13.3961154199 6.2515090676 
C 9.8238122437 13.3961154199 9.8238122437 
C 9.8238122437 13.3961154199 13.3961154199 
C 9.8238122437 13.3961154199 16.9684185961 
C 9.8238122437 16.9684185961 2.6792058914 
C 9.8238122437 16.9684185961 6.2515090676 
C 9.8238122437 16.9684185961 9.8238122437 
C 9.8238122437 16.9684185961 13.3961154199 
C 9.8238122437 16.9684185961 16.9684185961 
C 13.3961154199 2.6792058914 2.6792058914 
C 13.3961154199 2.6792058914 6.2515090676 
C 13.3961154199 2.6792058914 9.8238122437 
C 13.3961154199 2.6792058914 13.3961154199 
C 13.3961154199 2.6792058914 16.9684185961 
C 13.3961154199 6.2515090676 2.6792058914 
C 13.3961154199 6.2515090676 6.2515090676 
C 13.3961154199 6.2515090676 9.8238122437 
C 13.3961154199 6.2515090676 13.3961154199 
C 13.3961154199 6.2515090676 16.9684185961 
C 13.3961154199 9.8238122437 2.6792058914 
C 13.3961154199 9.8238122437 6.2515090676 
C 13.3961154199 9.8238122437 9.8238122437 
C 13.3961154199 9.8238122437 13.3961154199 
C 13.3961154199 9.8238122437 16.9684185961 
C 13.3961154199 13.3961154199 2.6792058914 
C 13.3961154199 13.3961154199 6.2515090676 
C 13.3961154199 13.3961154199 9.8238122437 
C 13.3961154199 13.3961154199 13.3961154199 
C 13.3961154199 13.3961154199 16.9684185961 
C 13.3961154199 16.9684185961 2.6792058914 
C 13.3961154199 16.9684185961 6.2515090676 
C 13.3961154199 16.9684185961 9.8238122437 
C 13.3961154199 16.9684185961 13.3961154199 
C 13.3961154199 16.9684185961 16.9684185961 
C 16.9684185961 2.6792058914 2.6792058914 
C 16.9684185961 2.6792058914 6.2515090676 
C 16.9684185961 2.6792058914 9.8238122437 
C 16.9684185961 2.6792058914 13.3961154199 
C 16.9684185961 2.6792058914 16.9684185961 
C 16.9684185961 6.2515090676 2.6792058914 
C 16.9684185961 6.2515090676 6.2515090676 
C 16.9684185961 6.2515090676 9.8238122437 
C 16.9684185961 6.2515090676 13.3961154199 
C 16.9684185961 6.2515090676 16.9684185961 
C 16.9684185961 9.8238122437 2.6792058914 
C 16.9684185961 9.8238122437 6.2515090676 
C 16.9684185961 9.8238122437 9.8238122437 
C 16.9684185961 9.8238122437 13.3961154199 
C 16.9684185961 9.8238122437 16.9684185961 
C 16.9684185961 13.3961154199 2.6792058914 
C 16.9684185961 13.3961154199 6.2515090676 
C 16.9684185961 13.3961154199 9.8238122437 
C 16.9684185961 13.3961154199 13.3961154199 
C 16.9684185961 13.3961154199 16.9684185961 
C 16.9684185961 16.9684185961 2.6792058914 
C 16.9684185961 16.9684185961 6.2515090676 
C 16.9684185961 16.9684185961 9.8238122437 
C 16.9684185961 16.9684185961 13.3961154199 
C 16.9684185961 16.9684185961 16.9684185961 
C 1.7861515885 0.0000000000 0.0000000000 
C 1.7861515885 0.0000000000 3.5723031762 
C 1.7861515885 0.0000000000 7.1446063523 
C 1.7861515885 0.0000000000 10.7169095285 
C 1.7861515885 0.0000000000 14.2892127047 
C 1.7861515885 3.5723031762 0.0000000000 
C 1.7861515885 3.5723031762 3.5723031762 
C 1.7861515885 3.5723031762 7.1446063523 
C 1.7861515885 3.5723031762 10.7169095285 
C 1.7861515885 3.5723031762 14.2892127047 
C 1.7861515885 7.1446063523 0.0000000000 
C 1.7861515885 7.1446063523 3.5723031762 
C 1.7861515885 7.1446063523 7.1446063523 
C 1.7861515885 7.1446063523 10.7169095285 
C 1.7861515885 7.1446063523 14.2892127047 
C 1.7861515885 10.7169095285 0.0000000000 
C 1.7861515885 10.7169095285 3.5723031762 
C 1.7861515885 10.7169095285 7.1446063523 
C 1.7861515885 10.7169095285 10.7169095285 
C 1.7861515885 10.7169095285 14.2892127047 
C 1.7861515885 14.2892127047 0.0000000000 
C 1.7861515885 14.2892127047 3.5723031762 
C 1.7861515885 14.2892127047 7.1446063523 
C 1.7861515885 14.2892127047 10.7169095285 
C 1.7861515885 14.2892127047 14.2892127047 
C 5.3584547647 0.0000000000 0.0000000000 
C 5.3584547647 0.0000000000 3.5723031762 
C 5.3584547647 0.0000000000 7.1446063523 
C 5.3584547647 0.0000000000 10.7169095285 
C 5.3584547647 0.0000000000 14.2892127047 
C 5.3584547647 3.5723031762 0.0000000000 
C 5.3584547647 3.5723031762 3.5723031762 
C 5.3584547647 3.5723031762 7.1446063523 
C 5.3584547647 3.5723031762 10.7169095285 
C 5.3584547647 3.5723031762 14.2892127047 
C 5.3584547647 7.1446063523 0.0000000000 
C 5.3584547647 7.1446063523 3.5723031762 
C 5.3584547647 7.1446063523 7.1446063523 
C 5.3584547647 7.1446063523 10.7169095285 
C 5.3584547647 7.1446063523 14.2892127047 
C 5.3584547647 10.7169095285 0.0000000000 
C 5.3584547647 10.7169095285 3.5723031762 
C 5.3584547647 10.7169095285 7.1446063523 
C 5.3584547647 10.7169095285 10.7169095285 
C 5.3584547647 10.7169095285 14.2892127047 