&CONTROL
   calculation      = 'ensemble'
   verbosity        = 'high'
   restart_mode     = 'restart'
   tstress          = .true.
   tprnfor          = .true.
   outdir           = './'
   prefix           = 'diamond'
   pseudo_dir       = '/trace/group/acmegroup/atimmins/packages/espresso/pseudo/psl_1.0.0/pslibrary.1.0.0/pbe/PSEUDOPOTENTIALS/'
/
&SYSTEM
   ibrav            = 1
   nat              = 7
   ntyp             = 1
   tot_charge       = 0
   ecutwfc          = 70
   ecutrho          = 350
   occupations      = 'smearing'
   degauss          = 0.01
   smearing         = 'gauss'
   input_dft        = 'BEEF-vdW'
   celldm(1)        = 6.750673994280376
/
&ELECTRONS
   electron_maxstep = 80
   conv_thr         = 1e-07
   mixing_mode      = 'plain'
   mixing_beta      = 0.7
   mixing_ndim      = 8
   diagonalization  = 'david'
   diago_david_ndim = 4
   diago_full_acc   = .true.
/
&IONS
   ion_dynamics     = 'bfgs'
/
&CELL
   cell_dynamics    = 'bfgs'
/

ATOMIC_SPECIES
C 12.011 C.pbe-n-kjpaw_psl.1.0.0.UPF

K_POINTS automatic
4 4 4  0 0 0

ATOMIC_POSITIONS angstrom
C 0.0000000000 0.0000000000 1.7861514092 
C 0.8930976563 0.8930976563 2.6792051621 
C 0.0000000000 1.7861514092 0.0000000000 
C 2.6792051621 2.6792051621 2.6792051621 
C 1.7861514092 0.0000000000 0.0000000000 
C 2.6792051621 0.8930976563 0.8930976563 
C 1.7861514092 1.7861514092 1.7861514092 

