&CONTROL
   calculation      = 'ensemble'
   verbosity        = 'high'
   restart_mode     = 'from_scratch'
   tstress          = .true.
   tprnfor          = .true.
   outdir           = './'
   prefix           = 'GaN'
   pseudo_dir       = '//group///packages/espresso/pseudo/psl_1.0.0/pslibrary.1.0.0/pbe/PSEUDOPOTENTIALS/'
/
&SYSTEM
   ibrav            = 4
   nat              = 4
   ntyp             = 1
   tot_charge       = 0
   ecutwfc          = 70
   ecutrho          = 350
   occupations      = 'smearing'
   degauss          = 0.01
   smearing         = 'gauss'
   input_dft        = 'BEEF-vdW'
   celldm(1)        = 4.7468173172015025
   celldm(3)        = 1.6642439078023452
/
&ELECTRONS
   electron_maxstep = 100
   conv_thr         = 1e-08
   mixing_mode      = 'plain'
   mixing_beta      = 0.7
   mixing_ndim      = 8
   diagonalization  = 'david'
   diago_david_ndim = 4
   diago_full_acc   = .true.
/
&IONS
   ion_dynamics     = 'bfgs'
/
&CELL
   cell_dynamics    = 'bfgs'
/

ATOMIC_SPECIES
C 12.011 C.pbe-n-kjpaw_psl.1.0.0.UPF

K_POINTS automatic
10 10 10  0 0 0

ATOMIC_POSITIONS angstrom
C -0.0000015904 1.4502509324 0.2621167546 
C 1.2559548577 0.7251243785 2.3523301637 
C 1.2559548577 0.7251243785 3.9183100636 
C -0.0000015904 1.4502509324 1.8280966545 

