&CONTROL
   calculation      = 'vc-relax'
   verbosity        = 'high'
   restart_mode     = 'from_scratch'
   tstress          = .true.
   tprnfor          = .true.
   outdir           = './'
   prefix           = 'diamond'
   pseudo_dir       = '//group///packages/espresso/pseudo/psl_1.0.0/pslibrary.1.0.0/pbe/PSEUDOPOTENTIALS/'
/
&SYSTEM
   ibrav            = 1
   nat              = 8
   ntyp             = 1
   tot_charge       = 0
   ecutwfc          = 70
   ecutrho          = 350
   occupations      = 'smearing'
   degauss          = 0.01
   smearing         = 'gauss'
   input_dft        = 'BEEF-vdW'
   celldm(1)        = 6.753333181372426
/
&ELECTRONS
   electron_maxstep = 80
   conv_thr         = 1e-08
   mixing_mode      = 'plain'
   mixing_beta      = 0.7
   mixing_ndim      = 8
   diagonalization  = 'david'
   diago_david_ndim = 4
   diago_full_acc   = .true.
/
&IONS
   ion_dynamics     = 'bfgs'
/
&CELL
   cell_dynamics    = 'bfgs'
/

ATOMIC_SPECIES
C 12.011 C.pbe-n-kjpaw_psl.1.0.0.UPF

K_POINTS automatic
4 4 4  0 0 0

ATOMIC_POSITIONS angstrom
C 0.8934275000 2.6802825000 0.8934275000 
C 0.0000000000 0.0000000000 1.7868550000 
C 0.8934275000 0.8934275000 2.6802825000 
C 0.0000000000 1.7868550000 0.0000000000 
C 2.6802825000 2.6802825000 2.6802825000 
C 1.7868550000 0.0000000000 0.0000000000 
C 2.6802825000 0.8934275000 0.8934275000 
C 1.7868550000 1.7868550000 1.7868550000 

