&CONTROL
   calculation      = 'ensemble'
   verbosity        = 'high'
   restart_mode     = 'restart'
   tstress          = .true.
   tprnfor          = .true.
   outdir           = './'
   prefix           = 'diamond'
   pseudo_dir       = '/trace/group/acmegroup/atimmins/packages/espresso/pseudo/psl_1.0.0/pslibrary.1.0.0/pbe/PSEUDOPOTENTIALS/'
/
&SYSTEM
   ibrav            = 1
   nat              = 511
   ntyp             = 1
   tot_charge       = -2
   ecutwfc          = 70
   ecutrho          = 350
   occupations      = 'smearing'
   degauss          = 0.01
   smearing         = 'gauss'
   input_dft        = 'BEEF-vdW'
   celldm(1)        = 27.002698678454777
/
&ELECTRONS
   electron_maxstep = 80
   conv_thr         = 1e-08
   mixing_mode      = 'plain'
   mixing_beta      = 0.7
   mixing_ndim      = 8
   diagonalization  = 'david'
   diago_david_ndim = 4
   diago_full_acc   = .true.
/
&IONS
   ion_dynamics     = 'bfgs'
/
&CELL
   cell_dynamics    = 'bfgs'
/

ATOMIC_SPECIES
C 12.011 C.pbe-n-kjpaw_psl.1.0.0.UPF

K_POINTS automatic
1 1 1  0 0 0

ATOMIC_POSITIONS angstrom
C 0.8930972856 2.6792058914 4.4654004618 
C 0.8930972856 2.6792058914 8.0377036379 
C 0.8930972856 2.6792058914 11.6100068141 
C 0.8930972856 6.2515090676 0.8930972856 
C 0.8930972856 6.2515090676 4.4654004618 
C 0.8930972856 6.2515090676 8.0377036379 
C 0.8930972856 6.2515090676 11.6100068141 
C 0.8930972856 9.8238122437 0.8930972856 
C 0.8930972856 9.8238122437 4.4654004618 
C 0.8930972856 9.8238122437 8.0377036379 
C 0.8930972856 9.8238122437 11.6100068141 
C 0.8930972856 13.3961154199 0.8930972856 
C 0.8930972856 13.3961154199 4.4654004618 
C 0.8930972856 13.3961154199 8.0377036379 
C 0.8930972856 13.3961154199 11.6100068141 
C 4.4654004618 2.6792058914 0.8930972856 
C 4.4654004618 2.6792058914 4.4654004618 
C 4.4654004618 2.6792058914 8.0377036379 
C 4.4654004618 2.6792058914 11.6100068141 
C 4.4654004618 6.2515090676 0.8930972856 
C 4.4654004618 6.2515090676 4.4654004618 
C 4.4654004618 6.2515090676 8.0377036379 
C 4.4654004618 6.2515090676 11.6100068141 
C 4.4654004618 9.8238122437 0.8930972856 
C 4.4654004618 9.8238122437 4.4654004618 
C 4.4654004618 9.8238122437 8.0377036379 
C 4.4654004618 9.8238122437 11.6100068141 
C 4.4654004618 13.3961154199 0.8930972856 
C 4.4654004618 13.3961154199 4.4654004618 
C 4.4654004618 13.3961154199 8.0377036379 
C 4.4654004618 13.3961154199 11.6100068141 
C 8.0377036379 2.6792058914 0.8930972856 
C 8.0377036379 2.6792058914 4.4654004618 
C 8.0377036379 2.6792058914 8.0377036379 
C 8.0377036379 2.6792058914 11.6100068141 
C 8.0377036379 6.2515090676 0.8930972856 
C 8.0377036379 6.2515090676 4.4654004618 
C 8.0377036379 6.2515090676 8.0377036379 
C 8.0377036379 6.2515090676 11.6100068141 
C 8.0377036379 9.8238122437 0.8930972856 
C 8.0377036379 9.8238122437 4.4654004618 
C 8.0377036379 9.8238122437 8.0377036379 
C 8.0377036379 9.8238122437 11.6100068141 
C 8.0377036379 13.3961154199 0.8930972856 
C 8.0377036379 13.3961154199 4.4654004618 
C 8.0377036379 13.3961154199 8.0377036379 
C 8.0377036379 13.3961154199 11.6100068141 
C 11.6100068141 2.6792058914 0.8930972856 
C 11.6100068141 2.6792058914 4.4654004618 
C 11.6100068141 2.6792058914 8.0377036379 
C 11.6100068141 2.6792058914 11.6100068141 
C 11.6100068141 6.2515090676 0.8930972856 
C 11.6100068141 6.2515090676 4.4654004618 
C 11.6100068141 6.2515090676 8.0377036379 
C 11.6100068141 6.2515090676 11.6100068141 
C 11.6100068141 9.8238122437 0.8930972856 
C 11.6100068141 9.8238122437 4.4654004618 
C 11.6100068141 9.8238122437 8.0377036379 
C 11.6100068141 9.8238122437 11.6100068141 
C 11.6100068141 13.3961154199 0.8930972856 
C 11.6100068141 13.3961154199 4.4654004618 
C 11.6100068141 13.3961154199 8.0377036379 
C 11.6100068141 13.3961154199 11.6100068141 
C 0.0000000000 0.0000000000 1.7861515885 
C 0.0000000000 0.0000000000 5.3584547647 
C 0.0000000000 0.0000000000 8.9307579408 
C 0.0000000000 0.0000000000 12.5030611170 
C 0.0000000000 3.5723031762 1.7861515885 
C 0.0000000000 3.5723031762 5.3584547647 
C 0.0000000000 3.5723031762 8.9307579408 
C 0.0000000000 3.5723031762 12.5030611170 
C 0.0000000000 7.1446063523 1.7861515885 
C 0.0000000000 7.1446063523 5.3584547647 
C 0.0000000000 7.1446063523 8.9307579408 
C 0.0000000000 7.1446063523 12.5030611170 
C 0.0000000000 10.7169095285 1.7861515885 
C 0.0000000000 10.7169095285 5.3584547647 
C 0.0000000000 10.7169095285 8.9307579408 
C 0.0000000000 10.7169095285 12.5030611170 
C 3.5723031762 0.0000000000 1.7861515885 
C 3.5723031762 0.0000000000 5.3584547647 
C 3.5723031762 0.0000000000 8.9307579408 
C 3.5723031762 0.0000000000 12.5030611170 
C 3.5723031762 3.5723031762 1.7861515885 
C 3.5723031762 3.5723031762 5.3584547647 
C 3.5723031762 3.5723031762 8.9307579408 
C 3.5723031762 3.5723031762 12.5030611170 
C 3.5723031762 7.1446063523 1.7861515885 
C 3.5723031762 7.1446063523 5.3584547647 
C 3.5723031762 7.1446063523 8.9307579408 
C 3.5723031762 7.1446063523 12.5030611170 
C 3.5723031762 10.7169095285 1.7861515885 
C 3.5723031762 10.7169095285 5.3584547647 
C 3.5723031762 10.7169095285 8.9307579408 
C 3.5723031762 10.7169095285 12.5030611170 
C 7.1446063523 0.0000000000 1.7861515885 
C 7.1446063523 0.0000000000 5.3584547647 
C 7.1446063523 0.0000000000 8.9307579408 
C 7.1446063523 0.0000000000 12.5030611170 
C 7.1446063523 3.5723031762 1.7861515885 
C 7.1446063523 3.5723031762 5.3584547647 
C 7.1446063523 3.5723031762 8.9307579408 
C 7.1446063523 3.5723031762 12.5030611170 
C 7.1446063523 7.1446063523 1.7861515885 
C 7.1446063523 7.1446063523 5.3584547647 
C 7.1446063523 7.1446063523 8.9307579408 
C 7.1446063523 7.1446063523 12.5030611170 
C 7.1446063523 10.7169095285 1.7861515885 
C 7.1446063523 10.7169095285 5.3584547647 
C 7.1446063523 10.7169095285 8.9307579408 
C 7.1446063523 10.7169095285 12.5030611170 
C 10.7169095285 0.0000000000 1.7861515885 
C 10.7169095285 0.0000000000 5.3584547647 
C 10.7169095285 0.0000000000 8.9307579408 
C 10.7169095285 0.0000000000 12.5030611170 
C 10.7169095285 3.5723031762 1.7861515885 
C 10.7169095285 3.5723031762 5.3584547647 
C 10.7169095285 3.5723031762 8.9307579408 
C 10.7169095285 3.5723031762 12.5030611170 
C 10.7169095285 7.1446063523 1.7861515885 
C 10.7169095285 7.1446063523 5.3584547647 
C 10.7169095285 7.1446063523 8.9307579408 
C 10.7169095285 7.1446063523 12.5030611170 
C 10.7169095285 10.7169095285 1.7861515885 
C 10.7169095285 10.7169095285 5.3584547647 
C 10.7169095285 10.7169095285 8.9307579408 
C 10.7169095285 10.7169095285 12.5030611170 
C 0.8930972856 0.8930972856 2.6792058914 
C 0.8930972856 0.8930972856 6.2515090676 
C 0.8930972856 0.8930972856 9.8238122437 
C 0.8930972856 0.8930972856 13.3961154199 
C 0.8930972856 4.4654004618 2.6792058914 
C 0.8930972856 4.4654004618 6.2515090676 
C 0.8930972856 4.4654004618 9.8238122437 
C 0.8930972856 4.4654004618 13.3961154199 
C 0.8930972856 8.0377036379 2.6792058914 
C 0.8930972856 8.0377036379 6.2515090676 
C 0.8930972856 8.0377036379 9.8238122437 
C 0.8930972856 8.0377036379 13.3961154199 
C 0.8930972856 11.6100068141 2.6792058914 
C 0.8930972856 11.6100068141 6.2515090676 
C 0.8930972856 11.6100068141 9.8238122437 
C 0.8930972856 11.6100068141 13.3961154199 
C 4.4654004618 0.8930972856 2.6792058914 
C 4.4654004618 0.8930972856 6.2515090676 
C 4.4654004618 0.8930972856 9.8238122437 
C 4.4654004618 0.8930972856 13.3961154199 
C 4.4654004618 4.4654004618 2.6792058914 
C 4.4654004618 4.4654004618 6.2515090676 
C 4.4654004618 4.4654004618 9.8238122437 
C 4.4654004618 4.4654004618 13.3961154199 
C 4.4654004618 8.0377036379 2.6792058914 
C 4.4654004618 8.0377036379 6.2515090676 
C 4.4654004618 8.0377036379 9.8238122437 
C 4.4654004618 8.0377036379 13.3961154199 
C 4.4654004618 11.6100068141 2.6792058914 
C 4.4654004618 11.6100068141 6.2515090676 
C 4.4654004618 11.6100068141 9.8238122437 
C 4.4654004618 11.6100068141 13.3961154199 
C 8.0377036379 0.8930972856 2.6792058914 
C 8.0377036379 0.8930972856 6.2515090676 
C 8.0377036379 0.8930972856 9.8238122437 
C 8.0377036379 0.8930972856 13.3961154199 
C 8.0377036379 4.4654004618 2.6792058914 
C 8.0377036379 4.4654004618 6.2515090676 
C 8.0377036379 4.4654004618 9.8238122437 
C 8.0377036379 4.4654004618 13.3961154199 
C 8.0377036379 8.0377036379 2.6792058914 
C 8.0377036379 8.0377036379 6.2515090676 
C 8.0377036379 8.0377036379 9.8238122437 
C 8.0377036379 8.0377036379 13.3961154199 
C 8.0377036379 11.6100068141 2.6792058914 
C 8.0377036379 11.6100068141 6.2515090676 
C 8.0377036379 11.6100068141 9.8238122437 
C 8.0377036379 11.6100068141 13.3961154199 
C 11.6100068141 0.8930972856 2.6792058914 
C 11.6100068141 0.8930972856 6.2515090676 
C 11.6100068141 0.8930972856 9.8238122437 
C 11.6100068141 0.8930972856 13.3961154199 
C 11.6100068141 4.4654004618 2.6792058914 
C 11.6100068141 4.4654004618 6.2515090676 
C 11.6100068141 4.4654004618 9.8238122437 
C 11.6100068141 4.4654004618 13.3961154199 
C 11.6100068141 8.0377036379 2.6792058914 
C 11.6100068141 8.0377036379 6.2515090676 
C 11.6100068141 8.0377036379 9.8238122437 
C 11.6100068141 8.0377036379 13.3961154199 
C 11.6100068141 11.6100068141 2.6792058914 
C 11.6100068141 11.6100068141 6.2515090676 
C 11.6100068141 11.6100068141 9.8238122437 
C 11.6100068141 11.6100068141 13.3961154199 
C 0.0000000000 1.7861515885 0.0000000000 
C 0.0000000000 1.7861515885 3.5723031762 
C 0.0000000000 1.7861515885 7.1446063523 
C 0.0000000000 1.7861515885 10.7169095285 
C 0.0000000000 5.3584547647 0.0000000000 
C 0.0000000000 5.3584547647 3.5723031762 
C 0.0000000000 5.3584547647 7.1446063523 
C 0.0000000000 5.3584547647 10.7169095285 
C 0.0000000000 8.9307579408 0.0000000000 
C 0.0000000000 8.9307579408 3.5723031762 
C 0.0000000000 8.9307579408 7.1446063523 
C 0.0000000000 8.9307579408 10.7169095285 
C 0.0000000000 12.5030611170 0.0000000000 
C 0.0000000000 12.5030611170 3.5723031762 
C 0.0000000000 12.5030611170 7.1446063523 
C 0.0000000000 12.5030611170 10.7169095285 
C 3.5723031762 1.7861515885 0.0000000000 
C 3.5723031762 1.7861515885 3.5723031762 
C 3.5723031762 1.7861515885 7.1446063523 
C 3.5723031762 1.7861515885 10.7169095285 
C 3.5723031762 5.3584547647 0.0000000000 
C 3.5723031762 5.3584547647 3.5723031762 
C 3.5723031762 5.3584547647 7.1446063523 
C 3.5723031762 5.3584547647 10.7169095285 
C 3.5723031762 8.9307579408 0.0000000000 
C 3.5723031762 8.9307579408 3.5723031762 
C 3.5723031762 8.9307579408 7.1446063523 
C 3.5723031762 8.9307579408 10.7169095285 
C 3.5723031762 12.5030611170 0.0000000000 
C 3.5723031762 12.5030611170 3.5723031762 
C 3.5723031762 12.5030611170 7.1446063523 
C 3.5723031762 12.5030611170 10.7169095285 
C 7.1446063523 1.7861515885 0.0000000000 
C 7.1446063523 1.7861515885 3.5723031762 
C 7.1446063523 1.7861515885 7.1446063523 
C 7.1446063523 1.7861515885 10.7169095285 
C 7.1446063523 5.3584547647 0.0000000000 
C 7.1446063523 5.3584547647 3.5723031762 
C 7.1446063523 5.3584547647 7.1446063523 
C 7.1446063523 5.3584547647 10.7169095285 
C 7.1446063523 8.9307579408 0.0000000000 
C 7.1446063523 8.9307579408 3.5723031762 
C 7.1446063523 8.9307579408 7.1446063523 
C 7.1446063523 8.9307579408 10.7169095285 
C 7.1446063523 12.5030611170 0.0000000000 
C 7.1446063523 12.5030611170 3.5723031762 
C 7.1446063523 12.5030611170 7.1446063523 
C 7.1446063523 12.5030611170 10.7169095285 
C 10.7169095285 1.7861515885 0.0000000000 
C 10.7169095285 1.7861515885 3.5723031762 
C 10.7169095285 1.7861515885 7.1446063523 
C 10.7169095285 1.7861515885 10.7169095285 
C 10.7169095285 5.3584547647 0.0000000000 
C 10.7169095285 5.3584547647 3.5723031762 
C 10.7169095285 5.3584547647 7.1446063523 
C 10.7169095285 5.3584547647 10.7169095285 
C 10.7169095285 8.9307579408 0.0000000000 
C 10.7169095285 8.9307579408 3.5723031762 
C 10.7169095285 8.9307579408 7.1446063523 
C 10.7169095285 8.9307579408 10.7169095285 
C 10.7169095285 12.5030611170 0.0000000000 
C 10.7169095285 12.5030611170 3.5723031762 
C 10.7169095285 12.5030611170 7.1446063523 
C 10.7169095285 12.5030611170 10.7169095285 
C 2.6792058914 2.6792058914 2.6792058914 
C 2.6792058914 2.6792058914 6.2515090676 
C 2.6792058914 2.6792058914 9.8238122437 
C 2.6792058914 2.6792058914 13.3961154199 
C 2.6792058914 6.2515090676 2.6792058914 
C 2.6792058914 6.2515090676 6.2515090676 
C 2.6792058914 6.2515090676 9.8238122437 
C 2.6792058914 6.2515090676 13.3961154199 
C 2.6792058914 9.8238122437 2.6792058914 
C 2.6792058914 9.8238122437 6.2515090676 
C 2.6792058914 9.8238122437 9.8238122437 
C 2.6792058914 9.8238122437 13.3961154199 
C 2.6792058914 13.3961154199 2.6792058914 
C 2.6792058914 13.3961154199 6.2515090676 
C 2.6792058914 13.3961154199 9.8238122437 
C 2.6792058914 13.3961154199 13.3961154199 
C 6.2515090676 2.6792058914 2.6792058914 
C 6.2515090676 2.6792058914 6.2515090676 
C 6.2515090676 2.6792058914 9.8238122437 
C 6.2515090676 2.6792058914 13.3961154199 
C 6.2515090676 6.2515090676 2.6792058914 
C 6.2515090676 6.2515090676 6.2515090676 
C 6.2515090676 6.2515090676 9.8238122437 
C 6.2515090676 6.2515090676 13.3961154199 
C 6.2515090676 9.8238122437 2.6792058914 
C 6.2515090676 9.8238122437 6.2515090676 
C 6.2515090676 9.8238122437 9.8238122437 
C 6.2515090676 9.8238122437 13.3961154199 
C 6.2515090676 13.3961154199 2.6792058914 
C 6.2515090676 13.3961154199 6.2515090676 
C 6.2515090676 13.3961154199 9.8238122437 
C 6.2515090676 13.3961154199 13.3961154199 
C 9.8238122437 2.6792058914 2.6792058914 
C 9.8238122437 2.6792058914 6.2515090676 
C 9.8238122437 2.6792058914 9.8238122437 
C 9.8238122437 2.6792058914 13.3961154199 
C 9.8238122437 6.2515090676 2.6792058914 
C 9.8238122437 6.2515090676 6.2515090676 
C 9.8238122437 6.2515090676 9.8238122437 
C 9.8238122437 6.2515090676 13.3961154199 
C 9.8238122437 9.8238122437 2.6792058914 
C 9.8238122437 9.8238122437 6.2515090676 
C 9.8238122437 9.8238122437 9.8238122437 
C 9.8238122437 9.8238122437 13.3961154199 
C 9.8238122437 13.3961154199 2.6792058914 
C 9.8238122437 13.3961154199 6.2515090676 
C 9.8238122437 13.3961154199 9.8238122437 
C 9.8238122437 13.3961154199 13.3961154199 
C 13.3961154199 2.6792058914 2.6792058914 
C 13.3961154199 2.6792058914 6.2515090676 
C 13.3961154199 2.6792058914 9.8238122437 
C 13.3961154199 2.6792058914 13.3961154199 
C 13.3961154199 6.2515090676 2.6792058914 
C 13.3961154199 6.2515090676 6.2515090676 
C 13.3961154199 6.2515090676 9.8238122437 
C 13.3961154199 6.2515090676 13.3961154199 
C 13.3961154199 9.8238122437 2.6792058914 
C 13.3961154199 9.8238122437 6.2515090676 
C 13.3961154199 9.8238122437 9.8238122437 
C 13.3961154199 9.8238122437 13.3961154199 
C 13.3961154199 13.3961154199 2.6792058914 
C 13.3961154199 13.3961154199 6.2515090676 
C 13.3961154199 13.3961154199 9.8238122437 
C 13.3961154199 13.3961154199 13.3961154199 
C 1.7861515885 0.0000000000 0.0000000000 
C 1.7861515885 0.0000000000 3.5723031762 
C 1.7861515885 0.0000000000 7.1446063523 
C 1.7861515885 0.0000000000 10.7169095285 
C 1.7861515885 3.5723031762 0.0000000000 
C 1.7861515885 3.5723031762 3.5723031762 
C 1.7861515885 3.5723031762 7.1446063523 
C 1.7861515885 3.5723031762 10.7169095285 
C 1.7861515885 7.1446063523 0.0000000000 
C 1.7861515885 7.1446063523 3.5723031762 
C 1.7861515885 7.1446063523 7.1446063523 
C 1.7861515885 7.1446063523 10.7169095285 
C 1.7861515885 10.7169095285 0.0000000000 
C 1.7861515885 10.7169095285 3.5723031762 
C 1.7861515885 10.7169095285 7.1446063523 
C 1.7861515885 10.7169095285 10.7169095285 
C 5.3584547647 0.0000000000 0.0000000000 
C 5.3584547647 0.0000000000 3.5723031762 
C 5.3584547647 0.0000000000 7.1446063523 
C 5.3584547647 0.0000000000 10.7169095285 
C 5.3584547647 3.5723031762 0.0000000000 
C 5.3584547647 3.5723031762 3.5723031762 
C 5.3584547647 3.5723031762 7.1446063523 
C 5.3584547647 3.5723031762 10.7169095285 
C 5.3584547647 7.1446063523 0.0000000000 
C 5.3584547647 7.1446063523 3.5723031762 
C 5.3584547647 7.1446063523 7.1446063523 
C 5.3584547647 7.1446063523 10.7169095285 
C 5.3584547647 10.7169095285 0.0000000000 
C 5.3584547647 10.7169095285 3.5723031762 
C 5.3584547647 10.7169095285 7.1446063523 
C 5.3584547647 10.7169095285 10.7169095285 
C 8.9307579408 0.0000000000 0.0000000000 
C 8.9307579408 0.0000000000 3.5723031762 
C 8.9307579408 0.0000000000 7.1446063523 
C 8.9307579408 0.0000000000 10.7169095285 
C 8.9307579408 3.5723031762 0.0000000000 
C 8.9307579408 3.5723031762 3.5723031762 
C 8.9307579408 3.5723031762 7.1446063523 
C 8.9307579408 3.5723031762 10.7169095285 
C 8.9307579408 7.1446063523 0.0000000000 
C 8.9307579408 7.1446063523 3.5723031762 
C 8.9307579408 7.1446063523 7.1446063523 
C 8.9307579408 7.1446063523 10.7169095285 
C 8.9307579408 10.7169095285 0.0000000000 
C 8.9307579408 10.7169095285 3.5723031762 
C 8.9307579408 10.7169095285 7.1446063523 
C 8.9307579408 10.7169095285 10.7169095285 
C 12.5030611170 0.0000000000 0.0000000000 
C 12.5030611170 0.0000000000 3.5723031762 
C 12.5030611170 0.0000000000 7.1446063523 
C 12.5030611170 0.0000000000 10.7169095285 
C 12.5030611170 3.5723031762 0.0000000000 
C 12.5030611170 3.5723031762 3.5723031762 
C 12.5030611170 3.5723031762 7.1446063523 
C 12.5030611170 3.5723031762 10.7169095285 
C 12.5030611170 7.1446063523 0.0000000000 
C 12.5030611170 7.1446063523 3.5723031762 
C 12.5030611170 7.1446063523 7.1446063523 
C 12.5030611170 7.1446063523 10.7169095285 
C 12.5030611170 10.7169095285 0.0000000000 
C 12.5030611170 10.7169095285 3.5723031762 
C 12.5030611170 10.7169095285 7.1446063523 
C 12.5030611170 10.7169095285 10.7169095285 
C 2.6792058914 0.8930972856 0.8930972856 
C 2.6792058914 0.8930972856 4.4654004618 
C 2.6792058914 0.8930972856 8.0377036379 
C 2.6792058914 0.8930972856 11.6100068141 
C 2.6792058914 4.4654004618 0.8930972856 
C 2.6792058914 4.4654004618 4.4654004618 
C 2.6792058914 4.4654004618 8.0377036379 
C 2.6792058914 4.4654004618 11.6100068141 
C 2.6792058914 8.0377036379 0.8930972856 
C 2.6792058914 8.0377036379 4.4654004618 
C 2.6792058914 8.0377036379 8.0377036379 
C 2.6792058914 8.0377036379 11.6100068141 
C 2.6792058914 11.6100068141 0.8930972856 
C 2.6792058914 11.6100068141 4.4654004618 
C 2.6792058914 11.6100068141 8.0377036379 
C 2.6792058914 11.6100068141 11.6100068141 
C 6.2515090676 0.8930972856 0.8930972856 
C 6.2515090676 0.8930972856 4.4654004618 
C 6.2515090676 0.8930972856 8.0377036379 
C 6.2515090676 0.8930972856 11.6100068141 
C 6.2515090676 4.4654004618 0.8930972856 
C 6.2515090676 4.4654004618 4.4654004618 
C 6.2515090676 4.4654004618 8.0377036379 
C 6.2515090676 4.4654004618 11.6100068141 
C 6.2515090676 8.0377036379 0.8930972856 
C 6.2515090676 8.0377036379 4.4654004618 
C 6.2515090676 8.0377036379 8.0377036379 
C 6.2515090676 8.0377036379 11.6100068141 
C 6.2515090676 11.6100068141 0.8930972856 
C 6.2515090676 11.6100068141 4.4654004618 
C 6.2515090676 11.6100068141 8.0377036379 
C 6.2515090676 11.6100068141 11.6100068141 
C 9.8238122437 0.8930972856 0.8930972856 
C 9.8238122437 0.8930972856 4.4654004618 
C 9.8238122437 0.8930972856 8.0377036379 
C 9.8238122437 0.8930972856 11.6100068141 
C 9.8238122437 4.4654004618 0.8930972856 
C 9.8238122437 4.4654004618 4.4654004618 
C 9.8238122437 4.4654004618 8.0377036379 
C 9.8238122437 4.4654004618 11.6100068141 
C 9.8238122437 8.0377036379 0.8930972856 
C 9.8238122437 8.0377036379 4.4654004618 
C 9.8238122437 8.0377036379 8.0377036379 
C 9.8238122437 8.0377036379 11.6100068141 
C 9.8238122437 11.6100068141 0.8930972856 
C 9.8238122437 11.6100068141 4.4654004618 
C 9.8238122437 11.6100068141 8.0377036379 
C 9.8238122437 11.6100068141 11.6100068141 
C 13.3961154199 0.8930972856 0.8930972856 
C 13.3961154199 0.8930972856 4.4654004618 
C 13.3961154199 0.8930972856 8.0377036379 
C 13.3961154199 0.8930972856 11.6100068141 
C 13.3961154199 4.4654004618 0.8930972856 
C 13.3961154199 4.4654004618 4.4654004618 
C 13.3961154199 4.4654004618 8.0377036379 
C 13.3961154199 4.4654004618 11.6100068141 
C 13.3961154199 8.0377036379 0.8930972856 
C 13.3961154199 8.0377036379 4.4654004618 
C 13.3961154199 8.0377036379 8.0377036379 
C 13.3961154199 8.0377036379 11.6100068141 
C 13.3961154199 11.6100068141 0.8930972856 
C 13.3961154199 11.6100068141 4.4654004618 
C 13.3961154199 11.6100068141 8.0377036379 
C 13.3961154199 11.6100068141 11.6100068141 
C 1.7861515885 1.7861515885 1.7861515885 
C 1.7861515885 1.7861515885 5.3584547647 
C 1.7861515885 1.7861515885 8.9307579408 
C 1.7861515885 1.7861515885 12.5030611170 
C 1.7861515885 5.3584547647 1.7861515885 
C 1.7861515885 5.3584547647 5.3584547647 
C 1.7861515885 5.3584547647 8.9307579408 
C 1.7861515885 5.3584547647 12.5030611170 
C 1.7861515885 8.9307579408 1.7861515885 
C 1.7861515885 8.9307579408 5.3584547647 
C 1.7861515885 8.9307579408 8.9307579408 
C 1.7861515885 8.9307579408 12.5030611170 
C 1.7861515885 12.5030611170 1.7861515885 
C 1.7861515885 12.5030611170 5.3584547647 
C 1.7861515885 12.5030611170 8.9307579408 
C 1.7861515885 12.5030611170 12.5030611170 
C 5.3584547647 1.7861515885 1.7861515885 
C 5.3584547647 1.7861515885 5.3584547647 
C 5.3584547647 1.7861515885 8.9307579408 
C 5.3584547647 1.7861515885 12.5030611170 
C 5.3584547647 5.3584547647 1.7861515885 
C 5.3584547647 5.3584547647 5.3584547647 
C 5.3584547647 5.3584547647 8.9307579408 
C 5.3584547647 5.3584547647 12.5030611170 
C 5.3584547647 8.9307579408 1.7861515885 
C 5.3584547647 8.9307579408 5.3584547647 
C 5.3584547647 8.9307579408 8.9307579408 
C 5.3584547647 8.9307579408 12.5030611170 
C 5.3584547647 12.5030611170 1.7861515885 
C 5.3584547647 12.5030611170 5.3584547647 
C 5.3584547647 12.5030611170 8.9307579408 
C 5.3584547647 12.5030611170 12.5030611170 
C 8.9307579408 1.7861515885 1.7861515885 
C 8.9307579408 1.7861515885 5.3584547647 
C 8.9307579408 1.7861515885 8.9307579408 
C 8.9307579408 1.7861515885 12.5030611170 
C 8.9307579408 5.3584547647 1.7861515885 
C 8.9307579408 5.3584547647 5.3584547647 
C 8.9307579408 5.3584547647 8.9307579408 
C 8.9307579408 5.3584547647 12.5030611170 
C 8.9307579408 8.9307579408 1.7861515885 
C 8.9307579408 8.9307579408 5.3584547647 
C 8.9307579408 8.9307579408 8.9307579408 
C 8.9307579408 8.9307579408 12.5030611170 
C 8.9307579408 12.5030611170 1.7861515885 
C 8.9307579408 12.5030611170 5.3584547647 
C 8.9307579408 12.5030611170 8.9307579408 
C 8.9307579408 12.5030611170 12.5030611170 
C 12.5030611170 1.7861515885 1.7861515885 
C 12.5030611170 1.7861515885 5.3584547647 
C 12.5030611170 1.7861515885 8.9307579408 
C 12.5030611170 1.7861515885 12.5030611170 
C 12.5030611170 5.3584547647 1.7861515885 
C 12.5030611170 5.3584547647 5.3584547647 
C 12.5030611170 5.3584547647 8.9307579408 
C 12.5030611170 5.3584547647 12.5030611170 
C 12.5030611170 8.9307579408 1.7861515885 
C 12.5030611170 8.9307579408 5.3584547647 
C 12.5030611170 8.9307579408 8.9307579408 
C 12.5030611170 8.9307579408 12.5030611170 
C 12.5030611170 12.5030611170 1.7861515885 
C 12.5030611170 12.5030611170 5.3584547647 
C 12.5030611170 12.5030611170 8.9307579408 
C 12.5030611170 12.5030611170 12.5030611170 

