&CONTROL
   calculation      = 'ensemble'
   verbosity        = 'high'
   restart_mode     = 'restart'
   tstress          = .true.
   tprnfor          = .true.
   outdir           = './'
   prefix           = 'diamond'
   pseudo_dir       = '/trace/group/acmegroup/atimmins/packages/espresso/pseudo/psl_1.0.0/pslibrary.1.0.0/pbe/PSEUDOPOTENTIALS/'
/
&SYSTEM
   ibrav            = 1
   nat              = 216
   ntyp             = 1
   tot_charge       = 0
   ecutwfc          = 70
   ecutrho          = 350
   occupations      = 'smearing'
   degauss          = 0.01
   smearing         = 'gauss'
   input_dft        = 'BEEF-vdW'
   celldm(1)        = 20.252023867021087
/
&ELECTRONS
   electron_maxstep = 80
   conv_thr         = 1e-07
   mixing_mode      = 'plain'
   mixing_beta      = 0.7
   mixing_ndim      = 8
   diagonalization  = 'david'
   diago_david_ndim = 4
   diago_full_acc   = .true.
/
&IONS
   ion_dynamics     = 'bfgs'
/
&CELL
   cell_dynamics    = 'bfgs'
/

ATOMIC_SPECIES
C 12.011 C.pbe-n-kjpaw_psl.1.0.0.UPF

K_POINTS automatic
2 2 2  0 0 0

ATOMIC_POSITIONS angstrom
C 0.8930972754 2.6792058776 0.8930972754 
C 0.8930972754 2.6792058776 4.4654004266 
C 0.8930972754 2.6792058776 8.0377035777 
C 0.8930972754 6.2515090288 0.8930972754 
C 0.8930972754 6.2515090288 4.4654004266 
C 0.8930972754 6.2515090288 8.0377035777 
C 0.8930972754 9.8238121799 0.8930972754 
C 0.8930972754 9.8238121799 4.4654004266 
C 0.8930972754 9.8238121799 8.0377035777 
C 4.4654004266 2.6792058776 0.8930972754 
C 4.4654004266 2.6792058776 4.4654004266 
C 4.4654004266 2.6792058776 8.0377035777 
C 4.4654004266 6.2515090288 0.8930972754 
C 4.4654004266 6.2515090288 4.4654004266 
C 4.4654004266 6.2515090288 8.0377035777 
C 4.4654004266 9.8238121799 0.8930972754 
C 4.4654004266 9.8238121799 4.4654004266 
C 4.4654004266 9.8238121799 8.0377035777 
C 8.0377035777 2.6792058776 0.8930972754 
C 8.0377035777 2.6792058776 4.4654004266 
C 8.0377035777 2.6792058776 8.0377035777 
C 8.0377035777 6.2515090288 0.8930972754 
C 8.0377035777 6.2515090288 4.4654004266 
C 8.0377035777 6.2515090288 8.0377035777 
C 8.0377035777 9.8238121799 0.8930972754 
C 8.0377035777 9.8238121799 4.4654004266 
C 8.0377035777 9.8238121799 8.0377035777 
C 0.0000000000 0.0000000000 1.7861515765 
C 0.0000000000 0.0000000000 5.3584547277 
C 0.0000000000 0.0000000000 8.9307578788 
C 0.0000000000 3.5723031512 1.7861515765 
C 0.0000000000 3.5723031512 5.3584547277 
C 0.0000000000 3.5723031512 8.9307578788 
C 0.0000000000 7.1446063023 1.7861515765 
C 0.0000000000 7.1446063023 5.3584547277 
C 0.0000000000 7.1446063023 8.9307578788 
C 3.5723031512 0.0000000000 1.7861515765 
C 3.5723031512 0.0000000000 5.3584547277 
C 3.5723031512 0.0000000000 8.9307578788 
C 3.5723031512 3.5723031512 1.7861515765 
C 3.5723031512 3.5723031512 5.3584547277 
C 3.5723031512 3.5723031512 8.9307578788 
C 3.5723031512 7.1446063023 1.7861515765 
C 3.5723031512 7.1446063023 5.3584547277 
C 3.5723031512 7.1446063023 8.9307578788 
C 7.1446063023 0.0000000000 1.7861515765 
C 7.1446063023 0.0000000000 5.3584547277 
C 7.1446063023 0.0000000000 8.9307578788 
C 7.1446063023 3.5723031512 1.7861515765 
C 7.1446063023 3.5723031512 5.3584547277 
C 7.1446063023 3.5723031512 8.9307578788 
C 7.1446063023 7.1446063023 1.7861515765 
C 7.1446063023 7.1446063023 5.3584547277 
C 7.1446063023 7.1446063023 8.9307578788 
C 0.8930972754 0.8930972754 2.6792058776 
C 0.8930972754 0.8930972754 6.2515090288 
C 0.8930972754 0.8930972754 9.8238121799 
C 0.8930972754 4.4654004266 2.6792058776 
C 0.8930972754 4.4654004266 6.2515090288 
C 0.8930972754 4.4654004266 9.8238121799 
C 0.8930972754 8.0377035777 2.6792058776 
C 0.8930972754 8.0377035777 6.2515090288 
C 0.8930972754 8.0377035777 9.8238121799 
C 4.4654004266 0.8930972754 2.6792058776 
C 4.4654004266 0.8930972754 6.2515090288 
C 4.4654004266 0.8930972754 9.8238121799 
C 4.4654004266 4.4654004266 2.6792058776 
C 4.4654004266 4.4654004266 6.2515090288 
C 4.4654004266 4.4654004266 9.8238121799 
C 4.4654004266 8.0377035777 2.6792058776 
C 4.4654004266 8.0377035777 6.2515090288 
C 4.4654004266 8.0377035777 9.8238121799 
C 8.0377035777 0.8930972754 2.6792058776 
C 8.0377035777 0.8930972754 6.2515090288 
C 8.0377035777 0.8930972754 9.8238121799 
C 8.0377035777 4.4654004266 2.6792058776 
C 8.0377035777 4.4654004266 6.2515090288 
C 8.0377035777 4.4654004266 9.8238121799 
C 8.0377035777 8.0377035777 2.6792058776 
C 8.0377035777 8.0377035777 6.2515090288 
C 8.0377035777 8.0377035777 9.8238121799 
C 0.0000000000 1.7861515765 0.0000000000 
C 0.0000000000 1.7861515765 3.5723031512 
C 0.0000000000 1.7861515765 7.1446063023 
C 0.0000000000 5.3584547277 0.0000000000 
C 0.0000000000 5.3584547277 3.5723031512 
C 0.0000000000 5.3584547277 7.1446063023 
C 0.0000000000 8.9307578788 0.0000000000 
C 0.0000000000 8.9307578788 3.5723031512 
C 0.0000000000 8.9307578788 7.1446063023 
C 3.5723031512 1.7861515765 0.0000000000 
C 3.5723031512 1.7861515765 3.5723031512 
C 3.5723031512 1.7861515765 7.1446063023 
C 3.5723031512 5.3584547277 0.0000000000 
C 3.5723031512 5.3584547277 3.5723031512 
C 3.5723031512 5.3584547277 7.1446063023 
C 3.5723031512 8.9307578788 0.0000000000 
C 3.5723031512 8.9307578788 3.5723031512 
C 3.5723031512 8.9307578788 7.1446063023 
C 7.1446063023 1.7861515765 0.0000000000 
C 7.1446063023 1.7861515765 3.5723031512 
C 7.1446063023 1.7861515765 7.1446063023 
C 7.1446063023 5.3584547277 0.0000000000 
C 7.1446063023 5.3584547277 3.5723031512 
C 7.1446063023 5.3584547277 7.1446063023 
C 7.1446063023 8.9307578788 0.0000000000 
C 7.1446063023 8.9307578788 3.5723031512 
C 7.1446063023 8.9307578788 7.1446063023 
C 2.6792058776 2.6792058776 2.6792058776 
C 2.6792058776 2.6792058776 6.2515090288 
C 2.6792058776 2.6792058776 9.8238121799 
C 2.6792058776 6.2515090288 2.6792058776 
C 2.6792058776 6.2515090288 6.2515090288 
C 2.6792058776 6.2515090288 9.8238121799 
C 2.6792058776 9.8238121799 2.6792058776 
C 2.6792058776 9.8238121799 6.2515090288 
C 2.6792058776 9.8238121799 9.8238121799 
C 6.2515090288 2.6792058776 2.6792058776 
C 6.2515090288 2.6792058776 6.2515090288 
C 6.2515090288 2.6792058776 9.8238121799 
C 6.2515090288 6.2515090288 2.6792058776 
C 6.2515090288 6.2515090288 6.2515090288 
C 6.2515090288 6.2515090288 9.8238121799 
C 6.2515090288 9.8238121799 2.6792058776 
C 6.2515090288 9.8238121799 6.2515090288 
C 6.2515090288 9.8238121799 9.8238121799 
C 9.8238121799 2.6792058776 2.6792058776 
C 9.8238121799 2.6792058776 6.2515090288 
C 9.8238121799 2.6792058776 9.8238121799 
C 9.8238121799 6.2515090288 2.6792058776 
C 9.8238121799 6.2515090288 6.2515090288 
C 9.8238121799 6.2515090288 9.8238121799 
C 9.8238121799 9.8238121799 2.6792058776 
C 9.8238121799 9.8238121799 6.2515090288 
C 9.8238121799 9.8238121799 9.8238121799 
C 1.7861515765 0.0000000000 0.0000000000 
C 1.7861515765 0.0000000000 3.5723031512 
C 1.7861515765 0.0000000000 7.1446063023 
C 1.7861515765 3.5723031512 0.0000000000 
C 1.7861515765 3.5723031512 3.5723031512 
C 1.7861515765 3.5723031512 7.1446063023 
C 1.7861515765 7.1446063023 0.0000000000 
C 1.7861515765 7.1446063023 3.5723031512 
C 1.7861515765 7.1446063023 7.1446063023 
C 5.3584547277 0.0000000000 0.0000000000 
C 5.3584547277 0.0000000000 3.5723031512 
C 5.3584547277 0.0000000000 7.1446063023 
C 5.3584547277 3.5723031512 0.0000000000 
C 5.3584547277 3.5723031512 3.5723031512 
C 5.3584547277 3.5723031512 7.1446063023 
C 5.3584547277 7.1446063023 0.0000000000 
C 5.3584547277 7.1446063023 3.5723031512 
C 5.3584547277 7.1446063023 7.1446063023 
C 8.9307578788 0.0000000000 0.0000000000 
C 8.9307578788 0.0000000000 3.5723031512 
C 8.9307578788 0.0000000000 7.1446063023 
C 8.9307578788 3.5723031512 0.0000000000 
C 8.9307578788 3.5723031512 3.5723031512 
C 8.9307578788 3.5723031512 7.1446063023 
C 8.9307578788 7.1446063023 0.0000000000 
C 8.9307578788 7.1446063023 3.5723031512 
C 8.9307578788 7.1446063023 7.1446063023 
C 2.6792058776 0.8930972754 0.8930972754 
C 2.6792058776 0.8930972754 4.4654004266 
C 2.6792058776 0.8930972754 8.0377035777 
C 2.6792058776 4.4654004266 0.8930972754 
C 2.6792058776 4.4654004266 4.4654004266 
C 2.6792058776 4.4654004266 8.0377035777 
C 2.6792058776 8.0377035777 0.8930972754 
C 2.6792058776 8.0377035777 4.4654004266 
C 2.6792058776 8.0377035777 8.0377035777 
C 6.2515090288 0.8930972754 0.8930972754 
C 6.2515090288 0.8930972754 4.4654004266 
C 6.2515090288 0.8930972754 8.0377035777 
C 6.2515090288 4.4654004266 0.8930972754 
C 6.2515090288 4.4654004266 4.4654004266 
C 6.2515090288 4.4654004266 8.0377035777 
C 6.2515090288 8.0377035777 0.8930972754 
C 6.2515090288 8.0377035777 4.4654004266 
C 6.2515090288 8.0377035777 8.0377035777 
C 9.8238121799 0.8930972754 0.8930972754 
C 9.8238121799 0.8930972754 4.4654004266 
C 9.8238121799 0.8930972754 8.0377035777 
C 9.8238121799 4.4654004266 0.8930972754 
C 9.8238121799 4.4654004266 4.4654004266 
C 9.8238121799 4.4654004266 8.0377035777 
C 9.8238121799 8.0377035777 0.8930972754 
C 9.8238121799 8.0377035777 4.4654004266 
C 9.8238121799 8.0377035777 8.0377035777 
C 1.7861515765 1.7861515765 1.7861515765 
C 1.7861515765 1.7861515765 5.3584547277 
C 1.7861515765 1.7861515765 8.9307578788 
C 1.7861515765 5.3584547277 1.7861515765 
C 1.7861515765 5.3584547277 5.3584547277 
C 1.7861515765 5.3584547277 8.9307578788 
C 1.7861515765 8.9307578788 1.7861515765 
C 1.7861515765 8.9307578788 5.3584547277 
C 1.7861515765 8.9307578788 8.9307578788 
C 5.3584547277 1.7861515765 1.7861515765 
C 5.3584547277 1.7861515765 5.3584547277 
C 5.3584547277 1.7861515765 8.9307578788 
C 5.3584547277 5.3584547277 1.7861515765 
C 5.3584547277 5.3584547277 5.3584547277 
C 5.3584547277 5.3584547277 8.9307578788 
C 5.3584547277 8.9307578788 1.7861515765 
C 5.3584547277 8.9307578788 5.3584547277 
C 5.3584547277 8.9307578788 8.9307578788 
C 8.9307578788 1.7861515765 1.7861515765 
C 8.9307578788 1.7861515765 5.3584547277 
C 8.9307578788 1.7861515765 8.9307578788 
C 8.9307578788 5.3584547277 1.7861515765 
C 8.9307578788 5.3584547277 5.3584547277 
C 8.9307578788 5.3584547277 8.9307578788 
C 8.9307578788 8.9307578788 1.7861515765 
C 8.9307578788 8.9307578788 5.3584547277 
C 8.9307578788 8.9307578788 8.9307578788 

