&CONTROL
   calculation      = 'ensemble'
   verbosity        = 'high'
   restart_mode     = 'restart'
   tstress          = .true.
   tprnfor          = .true.
   outdir           = './'
   prefix           = 'PbI2'
   max_seconds      = 154800
   pseudo_dir       = '/trace/group/acmegroup/atimmins/packages/espresso/pseudo/psl_1.0.0/pslibrary.1.0.0/pbe/PSEUDOPOTENTIALS/'
/
&SYSTEM
   ibrav            = 4
   nat              = 6
   ntyp             = 2
   tot_charge       = 0
   ecutwfc          = 70
   ecutrho          = 350
   occupations      = 'smearing'
   degauss          = 0.01
   smearing         = 'gauss'
   input_dft        = 'BEEF-vdW'
   celldm(1)        = 8.92015679342977
   celldm(3)        = 3.137381954863427
/
&ELECTRONS
   electron_maxstep = 100
   scf_must_converge = .true.
   conv_thr         = 1e-07
   mixing_mode      = 'plain'
   mixing_beta      = 0.7
   mixing_ndim      = 8
   diagonalization  = 'david'
   diago_david_ndim = 4
   diago_full_acc   = .true.
/
&IONS
   ion_dynamics     = 'bfgs'
/
&CELL
   cell_dynamics    = 'bfgs'
/

ATOMIC_SPECIES
Pb 207.2 Pb.pbe-dn-kjpaw_psl.1.0.0.UPF
I 126.90447 I.pbe-dn-kjpaw_psl.1.0.0.UPF

K_POINTS automatic
4 4 1  0 0 0

ATOMIC_POSITIONS angstrom
Pb 2.3601741935 1.3626446474 7.4038931940 
Pb -0.0000023601 2.7252933826 14.8086537147 
I 2.3601741935 1.3626446474 12.9281297638 
I 0.0000000000 0.0000000000 1.8822734136 
I 0.0000000000 0.0000000000 9.2870339343 
I -0.0000023601 2.7252933826 5.5233692431 

