&CONTROL
   calculation      = 'ensemble'
   verbosity        = 'high'
   restart_mode     = 'restart'
   tstress          = .true.
   tprnfor          = .true.
   outdir           = './'
   prefix           = 'PbI2'
   max_seconds      = 154800
   pseudo_dir       = '//group///packages/espresso/pseudo/psl_1.0.0/pslibrary.1.0.0/pbe/PSEUDOPOTENTIALS/'
/
&SYSTEM
   ibrav            = 4
   nat              = 144
   ntyp             = 2
   tot_charge       = 1
   ecutwfc          = 70
   ecutrho          = 350
   occupations      = 'smearing'
   degauss          = 0.01
   smearing         = 'gauss'
   input_dft        = 'BEEF-vdW'
   celldm(1)        = 35.61203274989457
   celldm(3)        = 1.1744785442267427
/
&ELECTRONS
   electron_maxstep = 100
   scf_must_converge = .true.
   conv_thr         = 1e-07
   mixing_mode      = 'plain'
   mixing_beta      = 0.7
   mixing_ndim      = 8
   diagonalization  = 'david'
   diago_david_ndim = 4
   diago_full_acc   = .true.
/
&IONS
   ion_dynamics     = 'bfgs'
/
&CELL
   cell_dynamics    = 'bfgs'
/

ATOMIC_SPECIES
Pb 207.2 Pb.pbe-dn-kjpaw_psl.1.0.0.UPF
I 126.90447 I.pbe-dn-kjpaw_psl.1.0.0.UPF

K_POINTS automatic
1 1 1  0 0 0

ATOMIC_POSITIONS angstrom
Pb 2.3556984262 4.0798040005 7.3776521883 
Pb 2.3557946754 4.0797188496 14.7553646928 
Pb 0.0002407020 8.1596935964 22.1329995052 
Pb 0.0000482036 8.1598638983 7.3775744961 
Pb 0.0001444528 8.1597787474 14.7552870006 
Pb -2.3554095206 12.2397534942 22.1329218130 
Pb -2.3556020189 12.2399237962 7.3774968039 
Pb -2.3555057697 12.2398386452 14.7552093085 
Pb -4.7110597431 16.3198133920 22.1328441208 
Pb -4.7112522415 16.3199836940 7.3774191117 
Pb -4.7111559923 16.3198985430 14.7551316163 
Pb 7.0671599432 4.0796155521 22.1331385559 
Pb 7.0669674448 4.0797858541 7.3777135468 
Pb 7.0670636940 4.0797007031 14.7554260513 
Pb 4.7115097206 8.1596754499 22.1330608637 
Pb 4.7113172222 8.1598457519 7.3776358546 
Pb 4.7114134714 8.1597606009 14.7553483592 
Pb 2.3558594980 12.2397353478 22.1329831715 
Pb 2.3556669997 12.2399056497 7.3775581624 
Pb 2.3557632489 12.2398204987 14.7552706670 
Pb 0.0002092755 16.3197952456 22.1329054793 
Pb 0.0000167771 16.3199655475 7.3774804702 
Pb 0.0001130263 16.3198803965 14.7551929748 
Pb 11.7784289618 4.0795974057 22.1331999144 
Pb 11.7782364634 4.0797677076 7.3777749053 
Pb 11.7783327126 4.0796825566 14.7554874098 
Pb 9.4227787392 8.1596573035 22.1331222222 
Pb 9.4225862408 8.1598276054 7.3776972131 
Pb 9.4226824900 8.1597424544 14.7554097177 
Pb 7.0671285166 12.2397172013 22.1330445300 
Pb 7.0669360183 12.2398875032 7.3776195209 
Pb 7.0670322675 12.2398023522 14.7553320255 
Pb 4.7114782941 16.3197770991 22.1329668379 
Pb 4.7112857957 16.3199474010 7.3775418287 
Pb 4.7113820449 16.3198622500 14.7552543333 
Pb 16.4896979804 4.0795792592 22.1332612729 
Pb 16.4895054820 4.0797495611 7.3778362638 
Pb 16.4896017312 4.0796644102 14.7555487684 
Pb 14.1340477578 8.1596391570 22.1331835807 
Pb 14.1338552594 8.1598094589 7.3777585716 
Pb 14.1339515086 8.1597243080 14.7554710762 
Pb 11.7783975352 12.2396990548 22.1331058886 
Pb 11.7782050369 12.2398693567 7.3776808794 
Pb 11.7783012861 12.2397842058 14.7553933840 
Pb 9.4227473127 16.3197589526 22.1330281964 
Pb 9.4225548143 16.3199292545 7.3776031872 
Pb 9.4226510635 16.3198441036 14.7553156918 
I 2.3557355957 1.3597659983 5.4826443618 
I 2.3558318449 1.3596808473 12.8603568664 
I 2.3559280941 1.3595956964 20.2380693709 
I 0.0000853731 5.4398258961 5.4825666696 
I 0.0001816223 5.4397407451 12.8602791742 
I 0.0002778715 5.4396555942 20.2379916787 
I -2.3555648494 9.5198857939 5.4824889774 
I -2.3554686002 9.5198006430 12.8602014820 
I -2.3553723510 9.5197154920 20.2379139866 
I -4.7112150720 13.5999456917 5.4824112853 
I -4.7111188228 13.5998605408 12.8601237898 
I -4.7110225736 13.5997753898 20.2378362944 
I 7.0670046143 1.3597478518 5.4827057203 
I 7.0671008635 1.3596627009 12.8604182249 
I 7.0671971127 1.3595775499 20.2381307294 
I 4.7113543917 5.4398077496 5.4826280281 
I 4.7114506409 5.4397225987 12.8603405327 
I 4.7115468901 5.4396374477 20.2380530373 
I 2.3557041692 9.5198676474 5.4825503359 
I 2.3558004184 9.5197824965 12.8602628405 
I 2.3558966676 9.5196973455 20.2379753451 
I 0.0000539466 13.5999275452 5.4824726438 
I 0.0001501958 13.5998423943 12.8601851483 
I 0.0002464450 13.5997572433 20.2378976529 
I 11.7782736329 1.3597297054 5.4827670788 
I 11.7783698821 1.3596445544 12.8604795834 
I 11.7784661313 1.3595594034 20.2381920879 
I 9.4226234103 5.4397896032 5.4826893866 
I 9.4227196595 5.4397044522 12.8604018912 
I 9.4228159087 5.4396193012 20.2381143958 
I 7.0669731878 9.5198495010 5.4826116945 
I 7.0670694370 9.5197643500 12.8603241990 
I 7.0671656862 9.5196791990 20.2380367036 
I 4.7113229652 13.5999093988 5.4825340023 
I 4.7114192144 13.5998242478 12.8602465068 
I 4.7115154636 13.5997390968 20.2379590114 
I 16.4895426515 1.3597115589 5.4828284373 
I 16.4896389007 1.3596264079 12.8605409419 
I 16.4897351499 1.3595412570 20.2382534465 
I 14.1338924289 5.4397714567 5.4827507452 
I 14.1339886781 5.4396863057 12.8604632497 
I 14.1340849273 5.4396011548 20.2381757543 
I 11.7782422064 9.5198313545 5.4826730530 
I 11.7783384556 9.5197462035 12.8603855575 
I 11.7784347048 9.5196610526 20.2380980621 
I 9.4225919838 13.5998912523 5.4825953608 
I 9.4226882330 13.5998061013 12.8603078653 
I 9.4227844822 13.5997209504 20.2380203699 
I -0.0000321176 2.7199047810 1.8949757376 
I 0.0000641316 2.7198196300 9.2726882422 
I 0.0001603808 2.7197344791 16.6504007467 
I -2.3556823402 6.7999646788 1.8948980454 
I -2.3555860910 6.7998795278 9.2726105500 
I -2.3554898418 6.7997943769 16.6503230545 
I -4.7113325627 10.8800245766 1.8948203532 
I -4.7112363135 10.8799394257 9.2725328578 
I -4.7111400643 10.8798542747 16.6502453624 
I -7.0669827853 14.9600844744 1.8947426611 
I -7.0668865361 14.9599993235 9.2724551656 
I -7.0667902869 14.9599141725 16.6501676702 
I 4.7112369010 2.7198866345 1.8950370961 
I 4.7113331502 2.7198014836 9.2727496007 
I 4.7114293994 2.7197163326 16.6504621052 
I 2.3555866784 6.7999465323 1.8949594039 
I 2.3556829276 6.7998613814 9.2726719085 
I 2.3557791768 6.7997762304 16.6503844131 
I -0.0000635441 10.8800064301 1.8948817117 
I 0.0000327051 10.8799212792 9.2725942163 
I 0.0001289543 10.8798361282 16.6503067209 
I -2.3557137667 14.9600663279 1.8948040196 
I -2.3556175175 14.9599811770 9.2725165241 
I -2.3555212683 14.9598960260 16.6502290287 
I 9.4225059196 2.7198684881 1.8950984546 
I 9.4226021688 2.7197833371 9.2728109592 
I 9.4226984180 2.7196981861 16.6505234637 
I 7.0668556970 6.7999283859 1.8950207624 
I 7.0669519462 6.7998432349 9.2727332670 
I 7.0670481954 6.7997580839 16.6504457716 
I 4.7112054745 10.8799882837 1.8949430703 
I 4.7113017237 10.8799031327 9.2726555748 
I 4.7113979729 10.8798179817 16.6503680794 
I 2.3555552519 14.9600481815 1.8948653781 
I 2.3556515011 14.9599630305 9.2725778826 
I 2.3557477503 14.9598778795 16.6502903872 
I 14.1337749382 2.7198503416 1.8951598131 
I 14.1338711874 2.7197651906 9.2728723177 
I 14.1339674366 2.7196800397 16.6505848223 
I 11.7781247156 6.7999102394 1.8950821210 
I 11.7782209648 6.7998250884 9.2727946255 
I 11.7783172140 6.7997399375 16.6505071301 
I 9.4224744931 10.8799701372 1.8950044288 
I 9.4225707423 10.8798849862 9.2727169333 
I 9.4226669915 10.8797998353 16.6504294379 
I 7.0668242705 14.9600300350 1.8949267366 
I 7.0669205197 14.9599448840 9.2726392411 
I 7.0670167689 14.9598597331 16.6503517457 
I 2.3558909246 4.0796336986 22.1330771974 

