&CONTROL
   calculation      = 'vc-relax'
   verbosity        = 'high'
   restart_mode     = 'from_scratch'
   tstress          = .true.
   tprnfor          = .true.
   outdir           = './'
   prefix           = 'PbI2'
   max_seconds      = 154800
   pseudo_dir       = '//group///packages/espresso/pseudo/psl_1.0.0/pslibrary.1.0.0/pbe/PSEUDOPOTENTIALS/'
/
&SYSTEM
   ibrav            = 8
   nat              = 8
   ntyp             = 1
   tot_charge       = 0
   ecutwfc          = 70
   ecutrho          = 350
   occupations      = 'smearing'
   degauss          = 0.01
   smearing         = 'gauss'
   input_dft        = 'BEEF-vdW'
   celldm(1)        = 8.37535440065786
   celldm(2)        = 1.7143284495726006
   celldm(3)        = 1.0278554985403747
/
&ELECTRONS
   electron_maxstep = 100
   scf_must_converge = .true.
   conv_thr         = 1e-07
   mixing_mode      = 'plain'
   mixing_beta      = 0.7
   mixing_ndim      = 8
   diagonalization  = 'david'
   diago_david_ndim = 4
   diago_full_acc   = .true.
/
&IONS
   ion_dynamics     = 'bfgs'
/
&CELL
   cell_dynamics    = 'bfgs'
/

ATOMIC_SPECIES
Ga 69.723 Ga.pbe-dn-kjpaw_psl.1.0.0.UPF

K_POINTS automatic
4 2 4  0 0 0

ATOMIC_POSITIONS angstrom
Ga 0.0000000000 2.6160183005 1.8923624985 
Ga 0.0000000000 1.1829735397 4.1701142635 
Ga 0.0000000000 4.9819653798 2.6631410315 
Ga 0.0000000000 6.4150101406 0.3853892665 
Ga 2.2160233304 6.4150101406 1.8923624985 
Ga 2.2160233304 4.9819653798 4.1701142635 
Ga 2.2160233304 1.1829735397 2.6631410315 
Ga 2.2160233304 2.6160183005 0.3853892665 

