&CONTROL
   calculation      = 'ensemble'
   verbosity        = 'high'
   restart_mode     = 'restart'
   tstress          = .true.
   tprnfor          = .true.
   outdir           = './'
   prefix           = 'PbI2'
   max_seconds      = 154800
   pseudo_dir       = '//group///packages/espresso/pseudo/psl_1.0.0/pslibrary.1.0.0/pbe/PSEUDOPOTENTIALS/'
/
&SYSTEM
   ibrav            = 4
   nat              = 95
   ntyp             = 2
   tot_charge       = 1
   ecutwfc          = 70
   ecutrho          = 350
   occupations      = 'smearing'
   degauss          = 0.01
   smearing         = 'gauss'
   input_dft        = 'BEEF-vdW'
   celldm(1)        = 35.61203274989457
   celldm(3)        = 0.7829856961511618
/
&ELECTRONS
   electron_maxstep = 100
   scf_must_converge = .true.
   conv_thr         = 1e-07
   mixing_mode      = 'plain'
   mixing_beta      = 0.7
   mixing_ndim      = 8
   diagonalization  = 'david'
   diago_david_ndim = 4
   diago_full_acc   = .true.
/
&IONS
   ion_dynamics     = 'bfgs'
/
&CELL
   cell_dynamics    = 'bfgs'
/

ATOMIC_SPECIES
Pb 207.2 Pb.pbe-dn-kjpaw_psl.1.0.0.UPF
I 126.90447 I.pbe-dn-kjpaw_psl.1.0.0.UPF

K_POINTS automatic
1 1 1  0 0 0

ATOMIC_POSITIONS angstrom
Pb 2.3557946754 4.0797188496 14.7553646928 
Pb 2.3556984262 4.0798040005 7.3776521883 
Pb 0.0001444528 8.1597787474 14.7552870006 
Pb 0.0000482036 8.1598638983 7.3775744961 
Pb -2.3555057697 12.2398386452 14.7552093085 
Pb -2.3556020189 12.2399237962 7.3774968039 
Pb -4.7111559923 16.3198985430 14.7551316163 
Pb -4.7112522415 16.3199836940 7.3774191117 
Pb 7.0670636940 4.0797007031 14.7554260513 
Pb 7.0669674448 4.0797858541 7.3777135468 
Pb 4.7114134714 8.1597606009 14.7553483592 
Pb 4.7113172222 8.1598457519 7.3776358546 
Pb 2.3557632489 12.2398204987 14.7552706670 
Pb 2.3556669997 12.2399056497 7.3775581624 
Pb 0.0001130263 16.3198803965 14.7551929748 
Pb 0.0000167771 16.3199655475 7.3774804702 
Pb 11.7783327126 4.0796825566 14.7554874098 
Pb 11.7782364634 4.0797677076 7.3777749053 
Pb 9.4226824900 8.1597424544 14.7554097177 
Pb 9.4225862408 8.1598276054 7.3776972131 
Pb 7.0670322675 12.2398023522 14.7553320255 
Pb 7.0669360183 12.2398875032 7.3776195209 
Pb 4.7113820449 16.3198622500 14.7552543333 
Pb 4.7112857957 16.3199474010 7.3775418287 
Pb 16.4896017312 4.0796644102 14.7555487684 
Pb 16.4895054820 4.0797495611 7.3778362638 
Pb 14.1339515086 8.1597243080 14.7554710762 
Pb 14.1338552594 8.1598094589 7.3777585716 
Pb 11.7783012861 12.2397842058 14.7553933840 
Pb 11.7782050369 12.2398693567 7.3776808794 
Pb 9.4226510635 16.3198441036 14.7553156918 
Pb 9.4225548143 16.3199292545 7.3776031872 
I 2.3558318449 1.3596808473 12.8603568664 
I 0.0000853731 5.4398258961 5.4825666696 
I 0.0001816223 5.4397407451 12.8602791742 
I -2.3555648494 9.5198857939 5.4824889774 
I -2.3554686002 9.5198006430 12.8602014820 
I -4.7112150720 13.5999456917 5.4824112853 
I -4.7111188228 13.5998605408 12.8601237898 
I 7.0670046143 1.3597478518 5.4827057203 
I 7.0671008635 1.3596627009 12.8604182249 
I 4.7113543917 5.4398077496 5.4826280281 
I 4.7114506409 5.4397225987 12.8603405327 
I 2.3557041692 9.5198676474 5.4825503359 
I 2.3558004184 9.5197824965 12.8602628405 
I 0.0000539466 13.5999275452 5.4824726438 
I 0.0001501958 13.5998423943 12.8601851483 
I 11.7782736329 1.3597297054 5.4827670788 
I 11.7783698821 1.3596445544 12.8604795834 
I 9.4226234103 5.4397896032 5.4826893866 
I 9.4227196595 5.4397044522 12.8604018912 
I 7.0669731878 9.5198495010 5.4826116945 
I 7.0670694370 9.5197643500 12.8603241990 
I 4.7113229652 13.5999093988 5.4825340023 
I 4.7114192144 13.5998242478 12.8602465068 
I 16.4895426515 1.3597115589 5.4828284373 
I 16.4896389007 1.3596264079 12.8605409419 
I 14.1338924289 5.4397714567 5.4827507452 
I 14.1339886781 5.4396863057 12.8604632497 
I 11.7782422064 9.5198313545 5.4826730530 
I 11.7783384556 9.5197462035 12.8603855575 
I 9.4225919838 13.5998912523 5.4825953608 
I 9.4226882330 13.5998061013 12.8603078653 
I -0.0000321176 2.7199047810 1.8949757376 
I 0.0000641316 2.7198196300 9.2726882422 
I -2.3556823402 6.7999646788 1.8948980454 
I -2.3555860910 6.7998795278 9.2726105500 
I -4.7113325627 10.8800245766 1.8948203532 
I -4.7112363135 10.8799394257 9.2725328578 
I -7.0669827853 14.9600844744 1.8947426611 
I -7.0668865361 14.9599993235 9.2724551656 
I 4.7112369010 2.7198866345 1.8950370961 
I 4.7113331502 2.7198014836 9.2727496007 
I 2.3555866784 6.7999465323 1.8949594039 
I 2.3556829276 6.7998613814 9.2726719085 
I -0.0000635441 10.8800064301 1.8948817117 
I 0.0000327051 10.8799212792 9.2725942163 
I -2.3557137667 14.9600663279 1.8948040196 
I -2.3556175175 14.9599811770 9.2725165241 
I 9.4225059196 2.7198684881 1.8950984546 
I 9.4226021688 2.7197833371 9.2728109592 
I 7.0668556970 6.7999283859 1.8950207624 
I 7.0669519462 6.7998432349 9.2727332670 
I 4.7112054745 10.8799882837 1.8949430703 
I 4.7113017237 10.8799031327 9.2726555748 
I 2.3555552519 14.9600481815 1.8948653781 
I 2.3556515011 14.9599630305 9.2725778826 
I 14.1337749382 2.7198503416 1.8951598131 
I 14.1338711874 2.7197651906 9.2728723177 
I 11.7781247156 6.7999102394 1.8950821210 
I 11.7782209648 6.7998250884 9.2727946255 
I 9.4224744931 10.8799701372 1.8950044288 
I 9.4225707423 10.8798849862 9.2727169333 
I 7.0668242705 14.9600300350 1.8949267366 
I 7.0669205197 14.9599448840 9.2726392411 

